&CONTROL
   calculation      = 'scf'
   tstress          = .true.
   tprnfor          = .true.
   outdir           = './Cr2La2'
   prefix           = 'Cr2La2_beef'
   pseudo_dir       = '../pseudo'
   tefield          = .true.
   dipfield         = .true.
/
&SYSTEM
   celldm(1)        = 1.889726
   ecutwfc          = 55.123963237125
   ecutrho          = 551.23963237125
   nosym            = .true.
   occupations      = 'smearing'
   degauss          = 0.01D0
   smearing         = 'fd'
   input_dft        = 'BEEF-vdW'
   edir             = 3
   emaxpos          = 0.95
   eopreg           = 0.05
   eamp             = 0.01
   ntyp             = 2
   nat              = 12
   ibrav            = 0
/
&ELECTRONS
   electron_maxstep = 500
   conv_thr         = 1e-05
   mixing_mode      = 'plain'
   mixing_beta      = 0.1
   mixing_ndim      = 10
/
&IONS
/
&CELL
/

ATOMIC_SPECIES
Cr 51.9961 Cr.pbe-spn-rrkjus_psl.1.0.0.UPF
La 138.90547 La.pbe-spfn-rrkjus_psl.1.0.0.UPF

K_POINTS automatic
12 12 1  0 0 0

CELL_PARAMETERS alat
6.16370500000000 0.00000000000000 0.00000000000000
2.05358900000000 5.81154300000000 0.00000000000000
0.00000000000000 0.00000000000000 25.03234400000000

ATOMIC_POSITIONS alat
Cr 0.0000000000 0.0000000000 10.0000000000 
Cr 4.1086472000 2.9057717000 10.0000000000 
La 3.0818527000 0.0000000000 10.0000000000 
La 1.0267945000 2.9057717000 10.0000000000 
Cr 6.1637054000 4.3591772000 12.5161721000 
Cr 2.0550583000 1.4534054000 12.5161721000 
La 3.0818527000 4.3591772000 12.5161721000 
La 5.1369110000 1.4534054000 12.5161721000 
Cr 4.1105717000 2.9070987000 14.3911568000 
Cr 0.0019480000 0.0014162000 14.3910611000 
La 1.0278922000 2.9065875000 15.0937928000 
La 3.0829513000 0.0007270000 15.0938137000 

