&CONTROL
   calculation      = 'scf'
   tstress          = .true.
   tprnfor          = .true.
   outdir           = './La2Rh2'
   prefix           = 'La2Rh2_beef'
   pseudo_dir       = '../pseudo'
   tefield          = .true.
   dipfield         = .true.
/
&SYSTEM
   celldm(1)        = 1.889726
   ecutwfc          = 55.123963237125
   ecutrho          = 551.23963237125
   nosym            = .true.
   occupations      = 'smearing'
   degauss          = 0.01D0
   smearing         = 'fd'
   input_dft        = 'BEEF-vdW'
   edir             = 3
   emaxpos          = 0.95
   eopreg           = 0.05
   eamp             = 0.01
   ntyp             = 2
   nat              = 12
   ibrav            = 0
/
&ELECTRONS
   electron_maxstep = 500
   conv_thr         = 1e-05
   mixing_mode      = 'plain'
   mixing_beta      = 0.1
   mixing_ndim      = 10
/
&IONS
/
&CELL
/

ATOMIC_SPECIES
La 138.90547 La.pbe-spfn-rrkjus_psl.1.0.0.UPF
Rh 102.9055 Rh.pbe-spn-rrkjus_psl.1.0.0.UPF

K_POINTS automatic
12 12 1  0 0 0

CELL_PARAMETERS alat
6.27350000000000 0.00000000000000 0.00000000000000
2.09400800000000 5.91370700000000 0.00000000000000
0.00000000000000 0.00000000000000 25.12315900000000

ATOMIC_POSITIONS alat
La 0.0000000000 0.0000000000 10.0000000000 
La 4.1837542000 2.9568535000 10.0000000000 
Rh 3.1367500000 0.0000000000 10.0000000000 
Rh 1.0470042000 2.9568535000 10.0000000000 
La 6.2734999000 4.4337739000 12.5615793000 
La 2.0897457000 1.4769204000 12.5615793000 
Rh 3.1367500000 4.4337739000 12.5615793000 
Rh 5.2264957000 1.4769204000 12.5615793000 
La 4.1819077000 2.9555350000 15.1573747000 
La 8.3655348000 5.9123149000 15.1575683000 
Rh 7.3158018000 2.9535148000 14.8438947000 
Rh 5.2260421000 5.9103702000 14.8438948000 

