&CONTROL
   calculation      = 'scf'
   tstress          = .true.
   tprnfor          = .true.
   outdir           = './La2Tc2'
   prefix           = 'La2Tc2_beef'
   pseudo_dir       = '../pseudo'
   tefield          = .true.
   dipfield         = .true.
/
&SYSTEM
   celldm(1)        = 1.889726
   ecutwfc          = 55.123963237125
   ecutrho          = 551.23963237125
   nosym            = .true.
   occupations      = 'smearing'
   degauss          = 0.01D0
   smearing         = 'fd'
   input_dft        = 'BEEF-vdW'
   edir             = 3
   emaxpos          = 0.95
   eopreg           = 0.05
   eamp             = 0.01
   ntyp             = 2
   nat              = 12
   ibrav            = 0
/
&ELECTRONS
   electron_maxstep = 500
   conv_thr         = 1e-05
   mixing_mode      = 'plain'
   mixing_beta      = 0.1
   mixing_ndim      = 10
/
&IONS
/
&CELL
/

ATOMIC_SPECIES
La 138.90547 La.pbe-spfn-rrkjus_psl.1.0.0.UPF
Tc 97.90721 Tc.pbe-spn-rrkjus_psl.0.3.0.UPF

K_POINTS automatic
12 12 1  0 0 0

CELL_PARAMETERS alat
6.20839000000000 0.00000000000000 0.00000000000000
2.06710300000000 5.85416000000000 0.00000000000000
0.00000000000000 0.00000000000000 25.06840500000000

ATOMIC_POSITIONS alat
La 0.0000000000 0.0000000000 10.0000000000 
La 4.1377465000 2.9270800000 10.0000000000 
Tc 3.1041949000 0.0000000000 10.0000000000 
Tc 1.0335516000 2.9270800000 10.0000000000 
La 6.2083898000 4.3918721000 12.5342023000 
La 2.0706433000 1.4647921000 12.5342023000 
Tc 3.1041949000 4.3918721000 12.5342023000 
Tc 5.1748382000 1.4647921000 12.5342023000 
La 4.1393002000 2.9281929000 15.1012074000 
La 0.0015674000 0.0010952000 15.1012229000 
Tc 1.0380748000 2.9302664000 14.5332517000 
Tc 3.1087832000 0.0032528000 14.5332608000 

