&CONTROL
   calculation      = 'scf'
   tstress          = .true.
   tprnfor          = .true.
   outdir           = './La2Ta2'
   prefix           = 'La2Ta2_beef'
   pseudo_dir       = '../pseudo'
   tefield          = .true.
   dipfield         = .true.
/
&SYSTEM
   celldm(1)        = 1.889726
   ecutwfc          = 55.123963237125
   ecutrho          = 551.23963237125
   nosym            = .true.
   occupations      = 'smearing'
   degauss          = 0.01D0
   smearing         = 'fd'
   input_dft        = 'BEEF-vdW'
   edir             = 3
   emaxpos          = 0.95
   eopreg           = 0.05
   eamp             = 0.01
   ntyp             = 2
   nat              = 12
   ibrav            = 0
/
&ELECTRONS
   electron_maxstep = 500
   conv_thr         = 1e-05
   mixing_mode      = 'plain'
   mixing_beta      = 0.1
   mixing_ndim      = 10
/
&IONS
/
&CELL
/

ATOMIC_SPECIES
La 138.90547 La.pbe-spfn-rrkjus_psl.1.0.0.UPF
Ta 180.94788 Ta.pbe-spfn-rrkjus_psl.1.0.0.UPF

K_POINTS automatic
12 12 1  0 0 0

CELL_PARAMETERS alat
6.20595000000000 0.00000000000000 0.00000000000000
-3.10297500000000 6.06425500000000 0.00000000000000
0.00000000000000 0.00000000000000 25.33199300000000

ATOMIC_POSITIONS alat
La 0.0000000000 0.0000000000 10.0000000000 
La 3.1029749000 0.0000000000 10.0000000000 
Ta 1.5514874000 3.0321273000 10.0000000000 
Ta -1.5514874000 3.0321273000 10.0000000000 
La 3.1029749000 1.5877389000 12.6659966000 
La -0.0000000000 1.5877389000 12.6659966000 
Ta -1.5514874000 4.6198662000 12.6659966000 
Ta 1.5514874000 4.6198662000 12.6659966000 
La -0.0000915000 3.3092682000 15.5576015000 
La 3.1028836000 3.3092565000 15.5576174000 
Ta 1.5514365000 6.0316906000 15.0029564000 
Ta -1.5515061000 6.0317160000 15.0029484000 

