&CONTROL
   calculation      = 'scf'
   tstress          = .true.
   tprnfor          = .true.
   outdir           = './V2La2'
   prefix           = 'V2La2_beef'
   pseudo_dir       = '../pseudo'
   tefield          = .true.
   dipfield         = .true.
/
&SYSTEM
   celldm(1)        = 1.889726
   ecutwfc          = 55.123963237125
   ecutrho          = 551.23963237125
   nosym            = .true.
   occupations      = 'smearing'
   degauss          = 0.01D0
   smearing         = 'fd'
   input_dft        = 'BEEF-vdW'
   edir             = 3
   emaxpos          = 0.95
   eopreg           = 0.05
   eamp             = 0.01
   ntyp             = 2
   nat              = 12
   ibrav            = 0
/
&ELECTRONS
   electron_maxstep = 500
   conv_thr         = 1e-05
   mixing_mode      = 'plain'
   mixing_beta      = 0.1
   mixing_ndim      = 10
/
&IONS
/
&CELL
/

ATOMIC_SPECIES
V 50.9415 V.pbe-spnl-rrkjus_psl.1.0.0.UPF
La 138.90547 La.pbe-spfn-rrkjus_psl.1.0.0.UPF

K_POINTS automatic
12 12 1  0 0 0

CELL_PARAMETERS alat
6.26818800000000 0.00000000000000 0.00000000000000
2.08613200000000 5.91085800000000 0.00000000000000
0.00000000000000 0.00000000000000 25.11695100000000

ATOMIC_POSITIONS alat
V 0.0000000000 0.0000000000 10.0000000000 
V 4.1771604000 2.9554288000 10.0000000000 
La 3.1340942000 0.0000000000 10.0000000000 
La 1.0430662000 2.9554288000 10.0000000000 
V 6.2681884000 4.4348751000 12.5584757000 
V 2.0910280000 1.4794463000 12.5584757000 
La 3.1340942000 4.4348751000 12.5584757000 
La 5.2251223000 1.4794463000 12.5584757000 
V 4.1834841000 2.9598908000 14.5480284000 
V 0.0062500000 0.0044410000 14.5479970000 
La 1.0476269000 2.9587170000 15.2226249000 
La 3.1386967000 0.0032011000 15.2226482000 

