&PROJWFC
prefix = 'Cr2La2_beef',
outdir = './Cr2La2',
degauss = 0.001,
DeltaE = 0.001,
filpdos = 'Cr2La2.pdos.out',
filproj = 'Cr2La2.proj.out',
/
