&INPUTPP
prefix = 'Cr2La2_beef',
outdir = './Cr2La2',
filplot = 'Cr2La2-wf.dat',
plot_num = 11
/
