&DOS
prefix = 'Cr2La2_beef',
outdir = './Cr2La2',
degauss = 0.001,
DeltaE = 0.001,
fildos = 'Cr2La2.dos.out',
/
