&INPUTPP
prefix = 'Cu2La2_beef',
outdir = './Cu2La2',
filplot = 'Cu2La2-wf.dat',
plot_num = 11
/
