&PROJWFC
prefix = 'Cu2La2_beef',
outdir = './Cu2La2',
degauss = 0.001,
DeltaE = 0.001,
filpdos = 'Cu2La2.pdos.out',
filproj = 'Cu2La2.proj.out',
/
