&DOS
prefix = 'Cu2La2_beef',
outdir = './Cu2La2',
degauss = 0.001,
DeltaE = 0.001,
fildos = 'Cu2La2.dos.out',
/
