&PROJWFC
prefix = 'La2Ag2_beef',
outdir = './La2Ag2',
degauss = 0.001,
DeltaE = 0.001,
filpdos = 'La2Ag2.pdos.out',
filproj = 'La2Ag2.proj.out',
/
