&DOS
prefix = 'La2Ag2_beef',
outdir = './La2Ag2',
degauss = 0.001,
DeltaE = 0.001,
fildos = 'La2Ag2.dos.out',
/
