&DOS
prefix = 'La2Au2_beef',
outdir = './La2Au2',
degauss = 0.001,
DeltaE = 0.001,
fildos = 'La2Au2.dos.out',
/
