&PROJWFC
prefix = 'La2Au2_beef',
outdir = './La2Au2',
degauss = 0.001,
DeltaE = 0.001,
filpdos = 'La2Au2.pdos.out',
filproj = 'La2Au2.proj.out',
/
