&INPUTPP
prefix = 'La2Ag2_beef',
outdir = './La2Ag2',
filplot = 'La2Ag2-wf.dat',
plot_num = 11
/
