&INPUTPP
prefix = 'La2Au2_beef',
outdir = './La2Au2',
filplot = 'La2Au2-wf.dat',
plot_num = 11
/
