&PROJWFC
prefix = 'La2Cd2_beef',
outdir = './La2Cd2',
degauss = 0.001,
DeltaE = 0.001,
filpdos = 'La2Cd2.pdos.out',
filproj = 'La2Cd2.proj.out',
/
