&DOS
prefix = 'La2Cd2_beef',
outdir = './La2Cd2',
degauss = 0.001,
DeltaE = 0.001,
fildos = 'La2Cd2.dos.out',
/
