&INPUTPP
prefix = 'La2Cd2_beef',
outdir = './La2Cd2',
filplot = 'La2Cd2-wf.dat',
plot_num = 11
/
