&DOS
prefix = 'La2Hf2_beef',
outdir = './La2Hf2',
degauss = 0.001,
DeltaE = 0.001,
fildos = 'La2Hf2.dos.out',
/
