&INPUTPP
prefix = 'La2Hg2_beef',
outdir = './La2Hg2',
filplot = 'La2Hg2-wf.dat',
plot_num = 11
/
