&PROJWFC
prefix = 'La2Hf2_beef',
outdir = './La2Hf2',
degauss = 0.001,
DeltaE = 0.001,
filpdos = 'La2Hf2.pdos.out',
filproj = 'La2Hf2.proj.out',
/
