&DOS
prefix = 'La2Hg2_beef',
outdir = './La2Hg2',
degauss = 0.001,
DeltaE = 0.001,
fildos = 'La2Hg2.dos.out',
/
