&PROJWFC
prefix = 'La2Hg2_beef',
outdir = './La2Hg2',
degauss = 0.001,
DeltaE = 0.001,
filpdos = 'La2Hg2.pdos.out',
filproj = 'La2Hg2.proj.out',
/
