&INPUTPP
prefix = 'La2Hf2_beef',
outdir = './La2Hf2',
filplot = 'La2Hf2-wf.dat',
plot_num = 11
/
