&INPUTPP
prefix = 'La2Ir2_beef',
outdir = './La2Ir2',
filplot = 'La2Ir2-wf.dat',
plot_num = 11
/
