&PROJWFC
prefix = 'La2Ir2_beef',
outdir = './La2Ir2',
degauss = 0.001,
DeltaE = 0.001,
filpdos = 'La2Ir2.pdos.out',
filproj = 'La2Ir2.proj.out',
/
