&DOS
prefix = 'La2Ir2_beef',
outdir = './La2Ir2',
degauss = 0.001,
DeltaE = 0.001,
fildos = 'La2Ir2.dos.out',
/
