&DOS
prefix = 'La2Mo2_beef',
outdir = './La2Mo2',
degauss = 0.001,
DeltaE = 0.001,
fildos = 'La2Mo2.dos.out',
/
