&PROJWFC
prefix = 'La2Mo2_beef',
outdir = './La2Mo2',
degauss = 0.001,
DeltaE = 0.001,
filpdos = 'La2Mo2.pdos.out',
filproj = 'La2Mo2.proj.out',
/
