&INPUTPP
prefix = 'La2Mo2_beef',
outdir = './La2Mo2',
filplot = 'La2Mo2-wf.dat',
plot_num = 11
/
