&DOS
prefix = 'La2Nb2_beef',
outdir = './La2Nb2',
degauss = 0.001,
DeltaE = 0.001,
fildos = 'La2Nb2.dos.out',
/
