&PROJWFC
prefix = 'La2Nb2_beef',
outdir = './La2Nb2',
degauss = 0.001,
DeltaE = 0.001,
filpdos = 'La2Nb2.pdos.out',
filproj = 'La2Nb2.proj.out',
/
