&INPUTPP
prefix = 'La2Nb2_beef',
outdir = './La2Nb2',
filplot = 'La2Nb2-wf.dat',
plot_num = 11
/
