&INPUTPP
prefix = 'La2Os2_beef',
outdir = './La2Os2',
filplot = 'La2Os2-wf.dat',
plot_num = 11
/
