&DOS
prefix = 'La2Os2_beef',
outdir = './La2Os2',
degauss = 0.001,
DeltaE = 0.001,
fildos = 'La2Os2.dos.out',
/
