&PROJWFC
prefix = 'La2Os2_beef',
outdir = './La2Os2',
degauss = 0.001,
DeltaE = 0.001,
filpdos = 'La2Os2.pdos.out',
filproj = 'La2Os2.proj.out',
/
