&INPUTPP
prefix = 'La2Pd2_beef',
outdir = './La2Pd2',
filplot = 'La2Pd2-wf.dat',
plot_num = 11
/
