&INPUTPP
prefix = 'La2Pt2_beef',
outdir = './La2Pt2',
filplot = 'La2Pt2-wf.dat',
plot_num = 11
/
