&PROJWFC
prefix = 'La2Pt2_beef',
outdir = './La2Pt2',
degauss = 0.001,
DeltaE = 0.001,
filpdos = 'La2Pt2.pdos.out',
filproj = 'La2Pt2.proj.out',
/
