&DOS
prefix = 'La2Pt2_beef',
outdir = './La2Pt2',
degauss = 0.001,
DeltaE = 0.001,
fildos = 'La2Pt2.dos.out',
/
