&PROJWFC
prefix = 'La2Pd2_beef',
outdir = './La2Pd2',
degauss = 0.001,
DeltaE = 0.001,
filpdos = 'La2Pd2.pdos.out',
filproj = 'La2Pd2.proj.out',
/
