&DOS
prefix = 'La2Pd2_beef',
outdir = './La2Pd2',
degauss = 0.001,
DeltaE = 0.001,
fildos = 'La2Pd2.dos.out',
/
