&INPUTPP
prefix = 'La2Re2_beef',
outdir = './La2Re2',
filplot = 'La2Re2-wf.dat',
plot_num = 11
/
