&PROJWFC
prefix = 'La2Rh2_beef',
outdir = './La2Rh2',
degauss = 0.001,
DeltaE = 0.001,
filpdos = 'La2Rh2.pdos.out',
filproj = 'La2Rh2.proj.out',
/
