&DOS
prefix = 'La2Re2_beef',
outdir = './La2Re2',
degauss = 0.001,
DeltaE = 0.001,
fildos = 'La2Re2.dos.out',
/
