&INPUTPP
prefix = 'La2Ru2_beef',
outdir = './La2Ru2',
filplot = 'La2Ru2-wf.dat',
plot_num = 11
/
