&PROJWFC
prefix = 'La2Ru2_beef',
outdir = './La2Ru2',
degauss = 0.001,
DeltaE = 0.001,
filpdos = 'La2Ru2.pdos.out',
filproj = 'La2Ru2.proj.out',
/
