&DOS
prefix = 'La2Rh2_beef',
outdir = './La2Rh2',
degauss = 0.001,
DeltaE = 0.001,
fildos = 'La2Rh2.dos.out',
/
