&INPUTPP
prefix = 'La2Rh2_beef',
outdir = './La2Rh2',
filplot = 'La2Rh2-wf.dat',
plot_num = 11
/
