&DOS
prefix = 'La2Ru2_beef',
outdir = './La2Ru2',
degauss = 0.001,
DeltaE = 0.001,
fildos = 'La2Ru2.dos.out',
/
