&PROJWFC
prefix = 'La2Re2_beef',
outdir = './La2Re2',
degauss = 0.001,
DeltaE = 0.001,
filpdos = 'La2Re2.pdos.out',
filproj = 'La2Re2.proj.out',
/
