&INPUTPP
prefix = 'La2Ta2_beef',
outdir = './La2Ta2',
filplot = 'La2Ta2-wf.dat',
plot_num = 11
/
