&PROJWFC
prefix = 'La2Ta2_beef',
outdir = './La2Ta2',
degauss = 0.001,
DeltaE = 0.001,
filpdos = 'La2Ta2.pdos.out',
filproj = 'La2Ta2.proj.out',
/
