&DOS
prefix = 'La2Ta2_beef',
outdir = './La2Ta2',
degauss = 0.001,
DeltaE = 0.001,
fildos = 'La2Ta2.dos.out',
/
