&DOS
prefix = 'La2Tc2_beef',
outdir = './La2Tc2',
degauss = 0.001,
DeltaE = 0.001,
fildos = 'La2Tc2.dos.out',
/
