&INPUTPP
prefix = 'La2Tc2_beef',
outdir = './La2Tc2',
filplot = 'La2Tc2-wf.dat',
plot_num = 11
/
