&PROJWFC
prefix = 'La2Tc2_beef',
outdir = './La2Tc2',
degauss = 0.001,
DeltaE = 0.001,
filpdos = 'La2Tc2.pdos.out',
filproj = 'La2Tc2.proj.out',
/
