&INPUTPP
prefix = 'La2W2_beef',
outdir = './La2W2',
filplot = 'La2W2-wf.dat',
plot_num = 11
/
