&PROJWFC
prefix = 'La2W2_beef',
outdir = './La2W2',
degauss = 0.001,
DeltaE = 0.001,
filpdos = 'La2W2.pdos.out',
filproj = 'La2W2.proj.out',
/
