&DOS
prefix = 'La2W2_beef',
outdir = './La2W2',
degauss = 0.001,
DeltaE = 0.001,
fildos = 'La2W2.dos.out',
/
