&PROJWFC
prefix = 'La2Y2_beef',
outdir = './La2Y2',
degauss = 0.001,
DeltaE = 0.001,
filpdos = 'La2Y2.pdos.out',
filproj = 'La2Y2.proj.out',
/
