&INPUTPP
prefix = 'La2Y2_beef',
outdir = './La2Y2',
filplot = 'La2Y2-wf.dat',
plot_num = 11
/
