&DOS
prefix = 'La2Y2_beef',
outdir = './La2Y2',
degauss = 0.001,
DeltaE = 0.001,
fildos = 'La2Y2.dos.out',
/
