&INPUTPP
prefix = 'La2Zr2_beef',
outdir = './La2Zr2',
filplot = 'La2Zr2-wf.dat',
plot_num = 11
/
