&DOS
prefix = 'La2Zr2_beef',
outdir = './La2Zr2',
degauss = 0.001,
DeltaE = 0.001,
fildos = 'La2Zr2.dos.out',
/
