&PROJWFC
prefix = 'La2Zr2_beef',
outdir = './La2Zr2',
degauss = 0.001,
DeltaE = 0.001,
filpdos = 'La2Zr2.pdos.out',
filproj = 'La2Zr2.proj.out',
/
