&DOS
prefix = 'Sc2La2_beef',
outdir = './Sc2La2',
degauss = 0.001,
DeltaE = 0.001,
fildos = 'Sc2La2.dos.out',
/
