&INPUTPP
prefix = 'Sc2La2_beef',
outdir = './Sc2La2',
filplot = 'Sc2La2-wf.dat',
plot_num = 11
/
