&PROJWFC
prefix = 'Sc2La2_beef',
outdir = './Sc2La2',
degauss = 0.001,
DeltaE = 0.001,
filpdos = 'Sc2La2.pdos.out',
filproj = 'Sc2La2.proj.out',
/
