&PROJWFC
prefix = 'Ti2La2_beef',
outdir = './Ti2La2',
degauss = 0.001,
DeltaE = 0.001,
filpdos = 'Ti2La2.pdos.out',
filproj = 'Ti2La2.proj.out',
/
