&DOS
prefix = 'Ti2La2_beef',
outdir = './Ti2La2',
degauss = 0.001,
DeltaE = 0.001,
fildos = 'Ti2La2.dos.out',
/
