&INPUTPP
prefix = 'Ti2La2_beef',
outdir = './Ti2La2',
filplot = 'Ti2La2-wf.dat',
plot_num = 11
/
