&PROJWFC
prefix = 'V2La2_beef',
outdir = './V2La2',
degauss = 0.001,
DeltaE = 0.001,
filpdos = 'V2La2.pdos.out',
filproj = 'V2La2.proj.out',
/
