&DOS
prefix = 'V2La2_beef',
outdir = './V2La2',
degauss = 0.001,
DeltaE = 0.001,
fildos = 'V2La2.dos.out',
/
