&INPUTPP
prefix = 'V2La2_beef',
outdir = './V2La2',
filplot = 'V2La2-wf.dat',
plot_num = 11
/
