&CONTROL
   calculation      = 'scf'
   tstress          = .true.
   tprnfor          = .true.
   outdir           = './Fe2Cd2'
   prefix           = 'Fe2Cd2_beef'
   pseudo_dir       = '../pseudo'
   tefield          = .true.
   dipfield         = .true.
/
&SYSTEM
   celldm(1)        = 1.889726
   ecutwfc          = 55.123963237125
   ecutrho          = 551.23963237125
   nosym            = .true.
   occupations      = 'smearing'
   degauss          = 0.01D0
   smearing         = 'fd'
   input_dft        = 'BEEF-vdW'
   edir             = 3
   emaxpos          = 0.95
   eopreg           = 0.05
   eamp             = 0.01
   nspin            = 2
   starting_magnetization(1) = 0.375
   starting_magnetization(2) = 0.0
   ntyp             = 2
   nat              = 12
   ibrav            = 0
/
&ELECTRONS
   electron_maxstep = 500
   conv_thr         = 1e-05
   mixing_mode      = 'plain'
   mixing_beta      = 0.1
   mixing_ndim      = 10
/
&IONS
/
&CELL
/

ATOMIC_SPECIES
Fe  55.845 Fe.pbe-n-rrkjus_psl.1.0.0.UPF
Cd  112.414 Cd.pbe-n-rrkjus_psl.1.0.0.UPF

K_POINTS automatic
12 12 1  0 0 0

CELL_PARAMETERS alat
5.63031700000000 0.00000000000000 0.00000000000000
-2.81515900000000 5.05418400000000 0.00000000000000
0.00000000000000 0.00000000000000 24.67606500000000

ATOMIC_POSITIONS alat
Fe  0.0000000000 0.0000000000 10.0000000000
Fe  2.8151587000 0.0000000000 10.0000000000
Cd  1.4075793000 2.5270918000 10.0000000000
Cd  -1.4075793000 2.5270918000 10.0000000000
Fe  2.8151587000 1.5680314000 12.3380325000
Fe  -0.0000000000 1.5680314000 12.3380325000
Cd  -1.4075793000 4.0951232000 12.3380325000
Cd  1.4075793000 4.0951232000 12.3380325000
Fe  0.0000021000 2.8271861000 14.4518002000
Fe  2.8151481000 2.8271516000 14.4517445000
Cd  4.2228099000 0.3823518000 15.0167567000
Cd  1.4074962000 0.3823404000 15.0167740000

