&PROJWFC
prefix = 'Fe2Cu2_beef',
outdir = './Fe2Cu2',
degauss = 0.001,
DeltaE = 0.001,
filpdos = 'Fe2Cu2.pdos.out',
filproj = 'Fe2Cu2.proj.out',
/
