&DOS
prefix = 'Fe2Cu2_beef',
outdir = './Fe2Cu2',
degauss = 0.001,
DeltaE = 0.001,
fildos = 'Fe2Cu2.dos.out',
/
