&INPUTPP
prefix = 'Fe2Cu2_beef',
outdir = './Fe2Cu2',
filplot = 'Fe2Cu2-wf.dat',
plot_num = 11
/
