&PROJWFC
prefix = 'Fe2Hf2_beef',
outdir = './Fe2Hf2',
degauss = 0.001,
DeltaE = 0.001,
filpdos = 'Fe2Hf2.pdos.out',
filproj = 'Fe2Hf2.proj.out',
/
