&DOS
prefix = 'Fe2Hg2_beef',
outdir = './Fe2Hg2',
degauss = 0.001,
DeltaE = 0.001,
fildos = 'Fe2Hg2.dos.out',
/
