&PROJWFC
prefix = 'Fe2Hg2_beef',
outdir = './Fe2Hg2',
degauss = 0.001,
DeltaE = 0.001,
filpdos = 'Fe2Hg2.pdos.out',
filproj = 'Fe2Hg2.proj.out',
/
