&INPUTPP
prefix = 'Fe2Hg2_beef',
outdir = './Fe2Hg2',
filplot = 'Fe2Hg2-wf.dat',
plot_num = 11
/
