&INPUTPP
prefix = 'Fe2Hf2_beef',
outdir = './Fe2Hf2',
filplot = 'Fe2Hf2-wf.dat',
plot_num = 11
/
