&DOS
prefix = 'Fe2Hf2_beef',
outdir = './Fe2Hf2',
degauss = 0.001,
DeltaE = 0.001,
fildos = 'Fe2Hf2.dos.out',
/
