&INPUTPP
prefix = 'Cd2Hg2_beef',
outdir = './Cd2Hg2',
filplot = 'Cd2Hg2-wf.dat',
plot_num = 11
/
