&DOS
prefix = 'Cd2Hg2_beef',
outdir = './Cd2Hg2',
degauss = 0.001,
DeltaE = 0.001,
fildos = 'Cd2Hg2.dos.out',
/
