&INPUTPP
prefix = 'Cd2Os2_beef',
outdir = './Cd2Os2',
filplot = 'Cd2Os2-wf.dat',
plot_num = 11
/
