&PROJWFC
prefix = 'Cd2Y2_beef',
outdir = './Cd2Y2',
degauss = 0.001,
DeltaE = 0.001,
filpdos = 'Cd2Y2.pdos.out',
filproj = 'Cd2Y2.proj.out',
/
