&PROJWFC
prefix = 'Cr2Hg2_beef',
outdir = './Cr2Hg2',
degauss = 0.001,
DeltaE = 0.001,
filpdos = 'Cr2Hg2.pdos.out',
filproj = 'Cr2Hg2.proj.out',
/
