&DOS
prefix = 'Cr2Nb2_beef',
outdir = './Cr2Nb2',
degauss = 0.001,
DeltaE = 0.001,
fildos = 'Cr2Nb2.dos.out',
/
