&INPUTPP
prefix = 'Cr2Nb2_beef',
outdir = './Cr2Nb2',
filplot = 'Cr2Nb2-wf.dat',
plot_num = 11
/
