&PROJWFC
prefix = 'Cr2Os2_beef',
outdir = './Cr2Os2',
degauss = 0.001,
DeltaE = 0.001,
filpdos = 'Cr2Os2.pdos.out',
filproj = 'Cr2Os2.proj.out',
/
