&INPUTPP
prefix = 'Cr2Y2_beef',
outdir = './Cr2Y2',
filplot = 'Cr2Y2-wf.dat',
plot_num = 11
/
