&PROJWFC
prefix = 'Cr2Y2_beef',
outdir = './Cr2Y2',
degauss = 0.001,
DeltaE = 0.001,
filpdos = 'Cr2Y2.pdos.out',
filproj = 'Cr2Y2.proj.out',
/
