&DOS
prefix = 'Cr2Y2_beef',
outdir = './Cr2Y2',
degauss = 0.001,
DeltaE = 0.001,
fildos = 'Cr2Y2.dos.out',
/
