&PROJWFC
prefix = 'Mo2Hg2_beef',
outdir = './Mo2Hg2',
degauss = 0.001,
DeltaE = 0.001,
filpdos = 'Mo2Hg2.pdos.out',
filproj = 'Mo2Hg2.proj.out',
/
