&INPUTPP
prefix = 'Mo2Hg2_beef',
outdir = './Mo2Hg2',
filplot = 'Mo2Hg2-wf.dat',
plot_num = 11
/
