&DOS
prefix = 'Mo2Os2_beef',
outdir = './Mo2Os2',
degauss = 0.001,
DeltaE = 0.001,
fildos = 'Mo2Os2.dos.out',
/
