&PROJWFC
prefix = 'Mo2Os2_beef',
outdir = './Mo2Os2',
degauss = 0.001,
DeltaE = 0.001,
filpdos = 'Mo2Os2.pdos.out',
filproj = 'Mo2Os2.proj.out',
/
