&DOS
prefix = 'Nb2Au2_beef',
outdir = './Nb2Au2',
degauss = 0.001,
DeltaE = 0.001,
fildos = 'Nb2Au2.dos.out',
/
