&DOS
prefix = 'Nb2Cd2_beef',
outdir = './Nb2Cd2',
degauss = 0.001,
DeltaE = 0.001,
fildos = 'Nb2Cd2.dos.out',
/
