&PROJWFC
prefix = 'Nb2Cd2_beef',
outdir = './Nb2Cd2',
degauss = 0.001,
DeltaE = 0.001,
filpdos = 'Nb2Cd2.pdos.out',
filproj = 'Nb2Cd2.proj.out',
/
