&INPUTPP
prefix = 'Nb2Cd2_beef',
outdir = './Nb2Cd2',
filplot = 'Nb2Cd2-wf.dat',
plot_num = 11
/
