&INPUTPP
prefix = 'Nb2Hg2_beef',
outdir = './Nb2Hg2',
filplot = 'Nb2Hg2-wf.dat',
plot_num = 11
/
