&PROJWFC
prefix = 'Nb2Hg2_beef',
outdir = './Nb2Hg2',
degauss = 0.001,
DeltaE = 0.001,
filpdos = 'Nb2Hg2.pdos.out',
filproj = 'Nb2Hg2.proj.out',
/
