&PROJWFC
prefix = 'Nb2Mo2_beef',
outdir = './Nb2Mo2',
degauss = 0.001,
DeltaE = 0.001,
filpdos = 'Nb2Mo2.pdos.out',
filproj = 'Nb2Mo2.proj.out',
/
