&INPUTPP
prefix = 'Nb2Mo2_beef',
outdir = './Nb2Mo2',
filplot = 'Nb2Mo2-wf.dat',
plot_num = 11
/
