&INPUTPP
prefix = 'Nb2Rh2_beef',
outdir = './Nb2Rh2',
filplot = 'Nb2Rh2-wf.dat',
plot_num = 11
/
