&DOS
prefix = 'Nb2Rh2_beef',
outdir = './Nb2Rh2',
degauss = 0.001,
DeltaE = 0.001,
fildos = 'Nb2Rh2.dos.out',
/
