&PROJWFC
prefix = 'Nb2Rh2_beef',
outdir = './Nb2Rh2',
degauss = 0.001,
DeltaE = 0.001,
filpdos = 'Nb2Rh2.pdos.out',
filproj = 'Nb2Rh2.proj.out',
/
