&DOS
prefix = 'Os2Au2_beef',
outdir = './Os2Au2',
degauss = 0.001,
DeltaE = 0.001,
fildos = 'Os2Au2.dos.out',
/
