&DOS
prefix = 'Os2Hg2_beef',
outdir = './Os2Hg2',
degauss = 0.001,
DeltaE = 0.001,
fildos = 'Os2Hg2.dos.out',
/
