&INPUTPP
prefix = 'Os2Hg2_beef',
outdir = './Os2Hg2',
filplot = 'Os2Hg2-wf.dat',
plot_num = 11
/
