&PROJWFC
prefix = 'Os2Hg2_beef',
outdir = './Os2Hg2',
degauss = 0.001,
DeltaE = 0.001,
filpdos = 'Os2Hg2.pdos.out',
filproj = 'Os2Hg2.proj.out',
/
