&PROJWFC
prefix = 'Rh2Hg2_beef',
outdir = './Rh2Hg2',
degauss = 0.001,
DeltaE = 0.001,
filpdos = 'Rh2Hg2.pdos.out',
filproj = 'Rh2Hg2.proj.out',
/
