&INPUTPP
prefix = 'Rh2Hg2_beef',
outdir = './Rh2Hg2',
filplot = 'Rh2Hg2-wf.dat',
plot_num = 11
/
