&DOS
prefix = 'Rh2Os2_beef',
outdir = './Rh2Os2',
degauss = 0.001,
DeltaE = 0.001,
fildos = 'Rh2Os2.dos.out',
/
