&PROJWFC
prefix = 'Rh2Y2_beef',
outdir = './Rh2Y2',
degauss = 0.001,
DeltaE = 0.001,
filpdos = 'Rh2Y2.pdos.out',
filproj = 'Rh2Y2.proj.out',
/
