&PROJWFC
prefix = 'Sc2Hg2_beef',
outdir = './Sc2Hg2',
degauss = 0.001,
DeltaE = 0.001,
filpdos = 'Sc2Hg2.pdos.out',
filproj = 'Sc2Hg2.proj.out',
/
