&DOS
prefix = 'Sc2Nb2_beef',
outdir = './Sc2Nb2',
degauss = 0.001,
DeltaE = 0.001,
fildos = 'Sc2Nb2.dos.out',
/
