&PROJWFC
prefix = 'Sc2Nb2_beef',
outdir = './Sc2Nb2',
degauss = 0.001,
DeltaE = 0.001,
filpdos = 'Sc2Nb2.pdos.out',
filproj = 'Sc2Nb2.proj.out',
/
