&INPUTPP
prefix = 'Sc2Nb2_beef',
outdir = './Sc2Nb2',
filplot = 'Sc2Nb2-wf.dat',
plot_num = 11
/
