&INPUTPP
prefix = 'Sc2Os2_beef',
outdir = './Sc2Os2',
filplot = 'Sc2Os2-wf.dat',
plot_num = 11
/
