&DOS
prefix = 'Sc2Y2_beef',
outdir = './Sc2Y2',
degauss = 0.001,
DeltaE = 0.001,
fildos = 'Sc2Y2.dos.out',
/
