&INPUTPP
prefix = 'Y2Au2_beef',
outdir = './Y2Au2',
filplot = 'Y2Au2-wf.dat',
plot_num = 11
/
