&DOS
prefix = 'Y2Au2_beef',
outdir = './Y2Au2',
degauss = 0.001,
DeltaE = 0.001,
fildos = 'Y2Au2.dos.out',
/
