&INPUTPP
prefix = 'Y2Hg2_beef',
outdir = './Y2Hg2',
filplot = 'Y2Hg2-wf.dat',
plot_num = 11
/
