&DOS
prefix = 'Y2Hg2_beef',
outdir = './Y2Hg2',
degauss = 0.001,
DeltaE = 0.001,
fildos = 'Y2Hg2.dos.out',
/
