&DOS
prefix = 'Y2Os2_beef',
outdir = './Y2Os2',
degauss = 0.001,
DeltaE = 0.001,
fildos = 'Y2Os2.dos.out',
/
