&DOS
prefix = 'Zr2Nb2_beef',
outdir = './Zr2Nb2',
degauss = 0.001,
DeltaE = 0.001,
fildos = 'Zr2Nb2.dos.out',
/
