&PROJWFC
prefix = 'Zr2Nb2_beef',
outdir = './Zr2Nb2',
degauss = 0.001,
DeltaE = 0.001,
filpdos = 'Zr2Nb2.pdos.out',
filproj = 'Zr2Nb2.proj.out',
/
