&PROJWFC
prefix = 'Fe2Ag2_beef',
outdir = './Fe2Ag2',
degauss = 0.001,
DeltaE = 0.001,
filpdos = 'Fe2Ag2.pdos.out',
filproj = 'Fe2Ag2.proj.out',
/
