&DOS
prefix = 'Fe2Au2_beef',
outdir = './Fe2Au2',
degauss = 0.001,
DeltaE = 0.001,
fildos = 'Fe2Au2.dos.out',
/
