&PROJWFC
prefix = 'Fe2Au2_beef',
outdir = './Fe2Au2',
degauss = 0.001,
DeltaE = 0.001,
filpdos = 'Fe2Au2.pdos.out',
filproj = 'Fe2Au2.proj.out',
/
