&DOS
prefix = 'Fe2Ag2_beef',
outdir = './Fe2Ag2',
degauss = 0.001,
DeltaE = 0.001,
fildos = 'Fe2Ag2.dos.out',
/
