&INPUTPP
prefix = 'Fe2Ag2_beef',
outdir = './Fe2Ag2',
filplot = 'Fe2Ag2-wf.dat',
plot_num = 11
/
