&INPUTPP
prefix = 'Fe2Au2_beef',
outdir = './Fe2Au2',
filplot = 'Fe2Au2-wf.dat',
plot_num = 11
/
