&INPUTPP
prefix = 'Fe2Cd2_beef',
outdir = './Fe2Cd2',
filplot = 'Fe2Cd2-wf.dat',
plot_num = 11
/
