&PROJWFC
prefix = 'Fe2Cd2_beef',
outdir = './Fe2Cd2',
degauss = 0.001,
DeltaE = 0.001,
filpdos = 'Fe2Cd2.pdos.out',
filproj = 'Fe2Cd2.proj.out',
/
