&DOS
prefix = 'Fe2Cd2_beef',
outdir = './Fe2Cd2',
degauss = 0.001,
DeltaE = 0.001,
fildos = 'Fe2Cd2.dos.out',
/
