&INPUTPP
prefix = 'Ag2Hf2_beef',
outdir = './Ag2Hf2',
filplot = 'Ag2Hf2-wf.dat',
plot_num = 11
/
