&DOS
prefix = 'Ag2Hf2_beef',
outdir = './Ag2Hf2',
degauss = 0.001,
DeltaE = 0.001,
fildos = 'Ag2Hf2.dos.out',
/
