&PROJWFC
prefix = 'Ag2Hf2_beef',
outdir = './Ag2Hf2',
degauss = 0.001,
DeltaE = 0.001,
filpdos = 'Ag2Hf2.pdos.out',
filproj = 'Ag2Hf2.proj.out',
/
