&PROJWFC
prefix = 'Ag2Ta2_beef',
outdir = './Ag2Ta2',
degauss = 0.001,
DeltaE = 0.001,
filpdos = 'Ag2Ta2.pdos.out',
filproj = 'Ag2Ta2.proj.out',
/
