&DOS
prefix = 'Ag2Ta2_beef',
outdir = './Ag2Ta2',
degauss = 0.001,
DeltaE = 0.001,
fildos = 'Ag2Ta2.dos.out',
/
