&INPUTPP
prefix = 'Ag2Ta2_beef',
outdir = './Ag2Ta2',
filplot = 'Ag2Ta2-wf.dat',
plot_num = 11
/
