&INPUTPP
prefix = 'Cd2Hf2_beef',
outdir = './Cd2Hf2',
filplot = 'Cd2Hf2-wf.dat',
plot_num = 11
/
