&PROJWFC
prefix = 'Cd2Hf2_beef',
outdir = './Cd2Hf2',
degauss = 0.001,
DeltaE = 0.001,
filpdos = 'Cd2Hf2.pdos.out',
filproj = 'Cd2Hf2.proj.out',
/
