&DOS
prefix = 'Cd2Hf2_beef',
outdir = './Cd2Hf2',
degauss = 0.001,
DeltaE = 0.001,
fildos = 'Cd2Hf2.dos.out',
/
