&DOS
prefix = 'Cd2Ta2_beef',
outdir = './Cd2Ta2',
degauss = 0.001,
DeltaE = 0.001,
fildos = 'Cd2Ta2.dos.out',
/
