&PROJWFC
prefix = 'Cd2Ta2_beef',
outdir = './Cd2Ta2',
degauss = 0.001,
DeltaE = 0.001,
filpdos = 'Cd2Ta2.pdos.out',
filproj = 'Cd2Ta2.proj.out',
/
