&INPUTPP
prefix = 'Cd2Ta2_beef',
outdir = './Cd2Ta2',
filplot = 'Cd2Ta2-wf.dat',
plot_num = 11
/
