&DOS
prefix = 'Cr2Hf2_beef',
outdir = './Cr2Hf2',
degauss = 0.001,
DeltaE = 0.001,
fildos = 'Cr2Hf2.dos.out',
/
