&PROJWFC
prefix = 'Cr2Hf2_beef',
outdir = './Cr2Hf2',
degauss = 0.001,
DeltaE = 0.001,
filpdos = 'Cr2Hf2.pdos.out',
filproj = 'Cr2Hf2.proj.out',
/
