&INPUTPP
prefix = 'Cr2Hf2_beef',
outdir = './Cr2Hf2',
filplot = 'Cr2Hf2-wf.dat',
plot_num = 11
/
