&INPUTPP
prefix = 'Cr2Ta2_beef',
outdir = './Cr2Ta2',
filplot = 'Cr2Ta2-wf.dat',
plot_num = 11
/
