&PROJWFC
prefix = 'Cr2Ta2_beef',
outdir = './Cr2Ta2',
degauss = 0.001,
DeltaE = 0.001,
filpdos = 'Cr2Ta2.pdos.out',
filproj = 'Cr2Ta2.proj.out',
/
