&DOS
prefix = 'Cr2Ta2_beef',
outdir = './Cr2Ta2',
degauss = 0.001,
DeltaE = 0.001,
fildos = 'Cr2Ta2.dos.out',
/
