&DOS
prefix = 'Cu2Hf2_beef',
outdir = './Cu2Hf2',
degauss = 0.001,
DeltaE = 0.001,
fildos = 'Cu2Hf2.dos.out',
/
