&PROJWFC
prefix = 'Cu2Hf2_beef',
outdir = './Cu2Hf2',
degauss = 0.001,
DeltaE = 0.001,
filpdos = 'Cu2Hf2.pdos.out',
filproj = 'Cu2Hf2.proj.out',
/
