&INPUTPP
prefix = 'Cu2Hf2_beef',
outdir = './Cu2Hf2',
filplot = 'Cu2Hf2-wf.dat',
plot_num = 11
/
