&PROJWFC
prefix = 'Cu2Ta2_beef',
outdir = './Cu2Ta2',
degauss = 0.001,
DeltaE = 0.001,
filpdos = 'Cu2Ta2.pdos.out',
filproj = 'Cu2Ta2.proj.out',
/
