&INPUTPP
prefix = 'Cu2Ta2_beef',
outdir = './Cu2Ta2',
filplot = 'Cu2Ta2-wf.dat',
plot_num = 11
/
