&DOS
prefix = 'Cu2Ta2_beef',
outdir = './Cu2Ta2',
degauss = 0.001,
DeltaE = 0.001,
fildos = 'Cu2Ta2.dos.out',
/
