&INPUTPP
prefix = 'Hf2Au2_beef',
outdir = './Hf2Au2',
filplot = 'Hf2Au2-wf.dat',
plot_num = 11
/
