&DOS
prefix = 'Hf2Au2_beef',
outdir = './Hf2Au2',
degauss = 0.001,
DeltaE = 0.001,
fildos = 'Hf2Au2.dos.out',
/
