&PROJWFC
prefix = 'Hf2Au2_beef',
outdir = './Hf2Au2',
degauss = 0.001,
DeltaE = 0.001,
filpdos = 'Hf2Au2.pdos.out',
filproj = 'Hf2Au2.proj.out',
/
