&DOS
prefix = 'Hf2Hg2_beef',
outdir = './Hf2Hg2',
degauss = 0.001,
DeltaE = 0.001,
fildos = 'Hf2Hg2.dos.out',
/
