&PROJWFC
prefix = 'Hf2Hg2_beef',
outdir = './Hf2Hg2',
degauss = 0.001,
DeltaE = 0.001,
filpdos = 'Hf2Hg2.pdos.out',
filproj = 'Hf2Hg2.proj.out',
/
