&INPUTPP
prefix = 'Hf2Hg2_beef',
outdir = './Hf2Hg2',
filplot = 'Hf2Hg2-wf.dat',
plot_num = 11
/
