&DOS
prefix = 'Hf2Ir2_beef',
outdir = './Hf2Ir2',
degauss = 0.001,
DeltaE = 0.001,
fildos = 'Hf2Ir2.dos.out',
/
