&PROJWFC
prefix = 'Hf2Ir2_beef',
outdir = './Hf2Ir2',
degauss = 0.001,
DeltaE = 0.001,
filpdos = 'Hf2Ir2.pdos.out',
filproj = 'Hf2Ir2.proj.out',
/
