&INPUTPP
prefix = 'Hf2Ir2_beef',
outdir = './Hf2Ir2',
filplot = 'Hf2Ir2-wf.dat',
plot_num = 11
/
