&DOS
prefix = 'Hf2Os2_beef',
outdir = './Hf2Os2',
degauss = 0.001,
DeltaE = 0.001,
fildos = 'Hf2Os2.dos.out',
/
