&INPUTPP
prefix = 'Hf2Os2_beef',
outdir = './Hf2Os2',
filplot = 'Hf2Os2-wf.dat',
plot_num = 11
/
