&PROJWFC
prefix = 'Hf2Os2_beef',
outdir = './Hf2Os2',
degauss = 0.001,
DeltaE = 0.001,
filpdos = 'Hf2Os2.pdos.out',
filproj = 'Hf2Os2.proj.out',
/
