&PROJWFC
prefix = 'Hf2Pt2_beef',
outdir = './Hf2Pt2',
degauss = 0.001,
DeltaE = 0.001,
filpdos = 'Hf2Pt2.pdos.out',
filproj = 'Hf2Pt2.proj.out',
/
