&INPUTPP
prefix = 'Hf2Pt2_beef',
outdir = './Hf2Pt2',
filplot = 'Hf2Pt2-wf.dat',
plot_num = 11
/
