&DOS
prefix = 'Hf2Pt2_beef',
outdir = './Hf2Pt2',
degauss = 0.001,
DeltaE = 0.001,
fildos = 'Hf2Pt2.dos.out',
/
