&PROJWFC
prefix = 'Hf2Re2_beef',
outdir = './Hf2Re2',
degauss = 0.001,
DeltaE = 0.001,
filpdos = 'Hf2Re2.pdos.out',
filproj = 'Hf2Re2.proj.out',
/
