&DOS
prefix = 'Hf2Re2_beef',
outdir = './Hf2Re2',
degauss = 0.001,
DeltaE = 0.001,
fildos = 'Hf2Re2.dos.out',
/
