&INPUTPP
prefix = 'Hf2Re2_beef',
outdir = './Hf2Re2',
filplot = 'Hf2Re2-wf.dat',
plot_num = 11
/
