&DOS
prefix = 'Hf2Ta2_beef',
outdir = './Hf2Ta2',
degauss = 0.001,
DeltaE = 0.001,
fildos = 'Hf2Ta2.dos.out',
/
