&INPUTPP
prefix = 'Hf2Ta2_beef',
outdir = './Hf2Ta2',
filplot = 'Hf2Ta2-wf.dat',
plot_num = 11
/
