&PROJWFC
prefix = 'Hf2Ta2_beef',
outdir = './Hf2Ta2',
degauss = 0.001,
DeltaE = 0.001,
filpdos = 'Hf2Ta2.pdos.out',
filproj = 'Hf2Ta2.proj.out',
/
