&INPUTPP
prefix = 'Hf2W2_beef',
outdir = './Hf2W2',
filplot = 'Hf2W2-wf.dat',
plot_num = 11
/
