&PROJWFC
prefix = 'Hf2W2_beef',
outdir = './Hf2W2',
degauss = 0.001,
DeltaE = 0.001,
filpdos = 'Hf2W2.pdos.out',
filproj = 'Hf2W2.proj.out',
/
