&DOS
prefix = 'Hf2W2_beef',
outdir = './Hf2W2',
degauss = 0.001,
DeltaE = 0.001,
fildos = 'Hf2W2.dos.out',
/
