&DOS
prefix = 'Hf2Y2_beef',
outdir = './Hf2Y2',
degauss = 0.001,
DeltaE = 0.001,
fildos = 'Hf2Y2.dos.out',
/
