&PROJWFC
prefix = 'Hf2Y2_beef',
outdir = './Hf2Y2',
degauss = 0.001,
DeltaE = 0.001,
filpdos = 'Hf2Y2.pdos.out',
filproj = 'Hf2Y2.proj.out',
/
