&INPUTPP
prefix = 'Hf2Y2_beef',
outdir = './Hf2Y2',
filplot = 'Hf2Y2-wf.dat',
plot_num = 11
/
