&INPUTPP
prefix = 'Mo2Hf2_beef',
outdir = './Mo2Hf2',
filplot = 'Mo2Hf2-wf.dat',
plot_num = 11
/
