&DOS
prefix = 'Mo2Hf2_beef',
outdir = './Mo2Hf2',
degauss = 0.001,
DeltaE = 0.001,
fildos = 'Mo2Hf2.dos.out',
/
