&PROJWFC
prefix = 'Mo2Hf2_beef',
outdir = './Mo2Hf2',
degauss = 0.001,
DeltaE = 0.001,
filpdos = 'Mo2Hf2.pdos.out',
filproj = 'Mo2Hf2.proj.out',
/
