&INPUTPP
prefix = 'Mo2Ta2_beef',
outdir = './Mo2Ta2',
filplot = 'Mo2Ta2-wf.dat',
plot_num = 11
/
