&PROJWFC
prefix = 'Mo2Ta2_beef',
outdir = './Mo2Ta2',
degauss = 0.001,
DeltaE = 0.001,
filpdos = 'Mo2Ta2.pdos.out',
filproj = 'Mo2Ta2.proj.out',
/
