&PROJWFC
prefix = 'Nb2Hf2_beef',
outdir = './Nb2Hf2',
degauss = 0.001,
DeltaE = 0.001,
filpdos = 'Nb2Hf2.pdos.out',
filproj = 'Nb2Hf2.proj.out',
/
