&INPUTPP
prefix = 'Nb2Hf2_beef',
outdir = './Nb2Hf2',
filplot = 'Nb2Hf2-wf.dat',
plot_num = 11
/
