&DOS
prefix = 'Nb2Ta2_beef',
outdir = './Nb2Ta2',
degauss = 0.001,
DeltaE = 0.001,
fildos = 'Nb2Ta2.dos.out',
/
