&INPUTPP
prefix = 'Nb2Ta2_beef',
outdir = './Nb2Ta2',
filplot = 'Nb2Ta2-wf.dat',
plot_num = 11
/
