&PROJWFC
prefix = 'Nb2Ta2_beef',
outdir = './Nb2Ta2',
degauss = 0.001,
DeltaE = 0.001,
filpdos = 'Nb2Ta2.pdos.out',
filproj = 'Nb2Ta2.proj.out',
/
