&INPUTPP
prefix = 'Pd2Hf2_beef',
outdir = './Pd2Hf2',
filplot = 'Pd2Hf2-wf.dat',
plot_num = 11
/
