&DOS
prefix = 'Pd2Hf2_beef',
outdir = './Pd2Hf2',
degauss = 0.001,
DeltaE = 0.001,
fildos = 'Pd2Hf2.dos.out',
/
