&DOS
prefix = 'Pd2Ta2_beef',
outdir = './Pd2Ta2',
degauss = 0.001,
DeltaE = 0.001,
fildos = 'Pd2Ta2.dos.out',
/
