&INPUTPP
prefix = 'Pd2Ta2_beef',
outdir = './Pd2Ta2',
filplot = 'Pd2Ta2-wf.dat',
plot_num = 11
/
