&PROJWFC
prefix = 'Pd2Ta2_beef',
outdir = './Pd2Ta2',
degauss = 0.001,
DeltaE = 0.001,
filpdos = 'Pd2Ta2.pdos.out',
filproj = 'Pd2Ta2.proj.out',
/
