&DOS
prefix = 'Rh2Hf2_beef',
outdir = './Rh2Hf2',
degauss = 0.001,
DeltaE = 0.001,
fildos = 'Rh2Hf2.dos.out',
/
