&PROJWFC
prefix = 'Rh2Hf2_beef',
outdir = './Rh2Hf2',
degauss = 0.001,
DeltaE = 0.001,
filpdos = 'Rh2Hf2.pdos.out',
filproj = 'Rh2Hf2.proj.out',
/
