&INPUTPP
prefix = 'Rh2Hf2_beef',
outdir = './Rh2Hf2',
filplot = 'Rh2Hf2-wf.dat',
plot_num = 11
/
