&INPUTPP
prefix = 'Rh2Ta2_beef',
outdir = './Rh2Ta2',
filplot = 'Rh2Ta2-wf.dat',
plot_num = 11
/
