&PROJWFC
prefix = 'Rh2Ta2_beef',
outdir = './Rh2Ta2',
degauss = 0.001,
DeltaE = 0.001,
filpdos = 'Rh2Ta2.pdos.out',
filproj = 'Rh2Ta2.proj.out',
/
