&DOS
prefix = 'Rh2Ta2_beef',
outdir = './Rh2Ta2',
degauss = 0.001,
DeltaE = 0.001,
fildos = 'Rh2Ta2.dos.out',
/
