&DOS
prefix = 'Ru2Hf2_beef',
outdir = './Ru2Hf2',
degauss = 0.001,
DeltaE = 0.001,
fildos = 'Ru2Hf2.dos.out',
/
