&INPUTPP
prefix = 'Ru2Hf2_beef',
outdir = './Ru2Hf2',
filplot = 'Ru2Hf2-wf.dat',
plot_num = 11
/
