&PROJWFC
prefix = 'Ru2Hf2_beef',
outdir = './Ru2Hf2',
degauss = 0.001,
DeltaE = 0.001,
filpdos = 'Ru2Hf2.pdos.out',
filproj = 'Ru2Hf2.proj.out',
/
