&DOS
prefix = 'Ru2Ta2_beef',
outdir = './Ru2Ta2',
degauss = 0.001,
DeltaE = 0.001,
fildos = 'Ru2Ta2.dos.out',
/
