&PROJWFC
prefix = 'Ru2Ta2_beef',
outdir = './Ru2Ta2',
degauss = 0.001,
DeltaE = 0.001,
filpdos = 'Ru2Ta2.pdos.out',
filproj = 'Ru2Ta2.proj.out',
/
