&INPUTPP
prefix = 'Ru2Ta2_beef',
outdir = './Ru2Ta2',
filplot = 'Ru2Ta2-wf.dat',
plot_num = 11
/
