&DOS
prefix = 'Sc2Hf2_beef',
outdir = './Sc2Hf2',
degauss = 0.001,
DeltaE = 0.001,
fildos = 'Sc2Hf2.dos.out',
/
