&PROJWFC
prefix = 'Sc2Hf2_beef',
outdir = './Sc2Hf2',
degauss = 0.001,
DeltaE = 0.001,
filpdos = 'Sc2Hf2.pdos.out',
filproj = 'Sc2Hf2.proj.out',
/
