&INPUTPP
prefix = 'Sc2Hf2_beef',
outdir = './Sc2Hf2',
filplot = 'Sc2Hf2-wf.dat',
plot_num = 11
/
