&DOS
prefix = 'Sc2Ta2_beef',
outdir = './Sc2Ta2',
degauss = 0.001,
DeltaE = 0.001,
fildos = 'Sc2Ta2.dos.out',
/
