&INPUTPP
prefix = 'Sc2Ta2_beef',
outdir = './Sc2Ta2',
filplot = 'Sc2Ta2-wf.dat',
plot_num = 11
/
