&PROJWFC
prefix = 'Sc2Ta2_beef',
outdir = './Sc2Ta2',
degauss = 0.001,
DeltaE = 0.001,
filpdos = 'Sc2Ta2.pdos.out',
filproj = 'Sc2Ta2.proj.out',
/
