&INPUTPP
prefix = 'Ta2Au2_beef',
outdir = './Ta2Au2',
filplot = 'Ta2Au2-wf.dat',
plot_num = 11
/
