&DOS
prefix = 'Ta2Au2_beef',
outdir = './Ta2Au2',
degauss = 0.001,
DeltaE = 0.001,
fildos = 'Ta2Au2.dos.out',
/
