&PROJWFC
prefix = 'Ta2Au2_beef',
outdir = './Ta2Au2',
degauss = 0.001,
DeltaE = 0.001,
filpdos = 'Ta2Au2.pdos.out',
filproj = 'Ta2Au2.proj.out',
/
