&PROJWFC
prefix = 'Ta2Hg2_beef',
outdir = './Ta2Hg2',
degauss = 0.001,
DeltaE = 0.001,
filpdos = 'Ta2Hg2.pdos.out',
filproj = 'Ta2Hg2.proj.out',
/
