&DOS
prefix = 'Ta2Hg2_beef',
outdir = './Ta2Hg2',
degauss = 0.001,
DeltaE = 0.001,
fildos = 'Ta2Hg2.dos.out',
/
