&INPUTPP
prefix = 'Ta2Hg2_beef',
outdir = './Ta2Hg2',
filplot = 'Ta2Hg2-wf.dat',
plot_num = 11
/
