&DOS
prefix = 'Ta2Ir2_beef',
outdir = './Ta2Ir2',
degauss = 0.001,
DeltaE = 0.001,
fildos = 'Ta2Ir2.dos.out',
/
