&INPUTPP
prefix = 'Ta2Ir2_beef',
outdir = './Ta2Ir2',
filplot = 'Ta2Ir2-wf.dat',
plot_num = 11
/
