&PROJWFC
prefix = 'Ta2Ir2_beef',
outdir = './Ta2Ir2',
degauss = 0.001,
DeltaE = 0.001,
filpdos = 'Ta2Ir2.pdos.out',
filproj = 'Ta2Ir2.proj.out',
/
