&INPUTPP
prefix = 'Ta2Os2_beef',
outdir = './Ta2Os2',
filplot = 'Ta2Os2-wf.dat',
plot_num = 11
/
