&DOS
prefix = 'Ta2Os2_beef',
outdir = './Ta2Os2',
degauss = 0.001,
DeltaE = 0.001,
fildos = 'Ta2Os2.dos.out',
/
