&PROJWFC
prefix = 'Ta2Os2_beef',
outdir = './Ta2Os2',
degauss = 0.001,
DeltaE = 0.001,
filpdos = 'Ta2Os2.pdos.out',
filproj = 'Ta2Os2.proj.out',
/
