&DOS
prefix = 'Ta2Pt2_beef',
outdir = './Ta2Pt2',
degauss = 0.001,
DeltaE = 0.001,
fildos = 'Ta2Pt2.dos.out',
/
