&PROJWFC
prefix = 'Ta2Pt2_beef',
outdir = './Ta2Pt2',
degauss = 0.001,
DeltaE = 0.001,
filpdos = 'Ta2Pt2.pdos.out',
filproj = 'Ta2Pt2.proj.out',
/
