&INPUTPP
prefix = 'Ta2Pt2_beef',
outdir = './Ta2Pt2',
filplot = 'Ta2Pt2-wf.dat',
plot_num = 11
/
