&DOS
prefix = 'Ta2Re2_beef',
outdir = './Ta2Re2',
degauss = 0.001,
DeltaE = 0.001,
fildos = 'Ta2Re2.dos.out',
/
