&PROJWFC
prefix = 'Ta2Re2_beef',
outdir = './Ta2Re2',
degauss = 0.001,
DeltaE = 0.001,
filpdos = 'Ta2Re2.pdos.out',
filproj = 'Ta2Re2.proj.out',
/
