&INPUTPP
prefix = 'Ta2Re2_beef',
outdir = './Ta2Re2',
filplot = 'Ta2Re2-wf.dat',
plot_num = 11
/
