&INPUTPP
prefix = 'Ta2W2_beef',
outdir = './Ta2W2',
filplot = 'Ta2W2-wf.dat',
plot_num = 11
/
