&PROJWFC
prefix = 'Ta2W2_beef',
outdir = './Ta2W2',
degauss = 0.001,
DeltaE = 0.001,
filpdos = 'Ta2W2.pdos.out',
filproj = 'Ta2W2.proj.out',
/
