&DOS
prefix = 'Ta2W2_beef',
outdir = './Ta2W2',
degauss = 0.001,
DeltaE = 0.001,
fildos = 'Ta2W2.dos.out',
/
