&PROJWFC
prefix = 'Tc2Hf2_beef',
outdir = './Tc2Hf2',
degauss = 0.001,
DeltaE = 0.001,
filpdos = 'Tc2Hf2.pdos.out',
filproj = 'Tc2Hf2.proj.out',
/
