&INPUTPP
prefix = 'Tc2Hf2_beef',
outdir = './Tc2Hf2',
filplot = 'Tc2Hf2-wf.dat',
plot_num = 11
/
