&DOS
prefix = 'Tc2Hf2_beef',
outdir = './Tc2Hf2',
degauss = 0.001,
DeltaE = 0.001,
fildos = 'Tc2Hf2.dos.out',
/
