&INPUTPP
prefix = 'Tc2Ta2_beef',
outdir = './Tc2Ta2',
filplot = 'Tc2Ta2-wf.dat',
plot_num = 11
/
