&PROJWFC
prefix = 'Tc2Ta2_beef',
outdir = './Tc2Ta2',
degauss = 0.001,
DeltaE = 0.001,
filpdos = 'Tc2Ta2.pdos.out',
filproj = 'Tc2Ta2.proj.out',
/
