&DOS
prefix = 'Tc2Ta2_beef',
outdir = './Tc2Ta2',
degauss = 0.001,
DeltaE = 0.001,
fildos = 'Tc2Ta2.dos.out',
/
