&PROJWFC
prefix = 'Ti2Hf2_beef',
outdir = './Ti2Hf2',
degauss = 0.001,
DeltaE = 0.001,
filpdos = 'Ti2Hf2.pdos.out',
filproj = 'Ti2Hf2.proj.out',
/
