&DOS
prefix = 'Ti2Hf2_beef',
outdir = './Ti2Hf2',
degauss = 0.001,
DeltaE = 0.001,
fildos = 'Ti2Hf2.dos.out',
/
