&INPUTPP
prefix = 'Ti2Hf2_beef',
outdir = './Ti2Hf2',
filplot = 'Ti2Hf2-wf.dat',
plot_num = 11
/
