&PROJWFC
prefix = 'Ti2Ta2_beef',
outdir = './Ti2Ta2',
degauss = 0.001,
DeltaE = 0.001,
filpdos = 'Ti2Ta2.pdos.out',
filproj = 'Ti2Ta2.proj.out',
/
