&DOS
prefix = 'Ti2Ta2_beef',
outdir = './Ti2Ta2',
degauss = 0.001,
DeltaE = 0.001,
fildos = 'Ti2Ta2.dos.out',
/
