&INPUTPP
prefix = 'Ti2Ta2_beef',
outdir = './Ti2Ta2',
filplot = 'Ti2Ta2-wf.dat',
plot_num = 11
/
