&INPUTPP
prefix = 'V2Hf2_beef',
outdir = './V2Hf2',
filplot = 'V2Hf2-wf.dat',
plot_num = 11
/
