&PROJWFC
prefix = 'V2Hf2_beef',
outdir = './V2Hf2',
degauss = 0.001,
DeltaE = 0.001,
filpdos = 'V2Hf2.pdos.out',
filproj = 'V2Hf2.proj.out',
/
