&DOS
prefix = 'V2Hf2_beef',
outdir = './V2Hf2',
degauss = 0.001,
DeltaE = 0.001,
fildos = 'V2Hf2.dos.out',
/
