&PROJWFC
prefix = 'V2Ta2_beef',
outdir = './V2Ta2',
degauss = 0.001,
DeltaE = 0.001,
filpdos = 'V2Ta2.pdos.out',
filproj = 'V2Ta2.proj.out',
/
