&DOS
prefix = 'V2Ta2_beef',
outdir = './V2Ta2',
degauss = 0.001,
DeltaE = 0.001,
fildos = 'V2Ta2.dos.out',
/
