&INPUTPP
prefix = 'V2Ta2_beef',
outdir = './V2Ta2',
filplot = 'V2Ta2-wf.dat',
plot_num = 11
/
