&PROJWFC
prefix = 'Y2Ta2_beef',
outdir = './Y2Ta2',
degauss = 0.001,
DeltaE = 0.001,
filpdos = 'Y2Ta2.pdos.out',
filproj = 'Y2Ta2.proj.out',
/
