&DOS
prefix = 'Y2Ta2_beef',
outdir = './Y2Ta2',
degauss = 0.001,
DeltaE = 0.001,
fildos = 'Y2Ta2.dos.out',
/
