&INPUTPP
prefix = 'Y2Ta2_beef',
outdir = './Y2Ta2',
filplot = 'Y2Ta2-wf.dat',
plot_num = 11
/
