&DOS
prefix = 'Zr2Hf2_beef',
outdir = './Zr2Hf2',
degauss = 0.001,
DeltaE = 0.001,
fildos = 'Zr2Hf2.dos.out',
/
