&INPUTPP
prefix = 'Zr2Hf2_beef',
outdir = './Zr2Hf2',
filplot = 'Zr2Hf2-wf.dat',
plot_num = 11
/
