&PROJWFC
prefix = 'Zr2Hf2_beef',
outdir = './Zr2Hf2',
degauss = 0.001,
DeltaE = 0.001,
filpdos = 'Zr2Hf2.pdos.out',
filproj = 'Zr2Hf2.proj.out',
/
