&PROJWFC
prefix = 'Zr2Ta2_beef',
outdir = './Zr2Ta2',
degauss = 0.001,
DeltaE = 0.001,
filpdos = 'Zr2Ta2.pdos.out',
filproj = 'Zr2Ta2.proj.out',
/
