&INPUTPP
prefix = 'Zr2Ta2_beef',
outdir = './Zr2Ta2',
filplot = 'Zr2Ta2-wf.dat',
plot_num = 11
/
