&DOS
prefix = 'Zr2Ta2_beef',
outdir = './Zr2Ta2',
degauss = 0.001,
DeltaE = 0.001,
fildos = 'Zr2Ta2.dos.out',
/
