&DOS
prefix = 'Co2Fe2_beef',
outdir = './Co2Fe2',
degauss = 0.001,
DeltaE = 0.001,
fildos = 'Co2Fe2.dos.out',
/
