&INPUTPP
prefix = 'Co2Fe2_beef',
outdir = './Co2Fe2',
filplot = 'Co2Fe2-wf.dat',
plot_num = 11
/
