&PROJWFC
prefix = 'Co2Fe2_beef',
outdir = './Co2Fe2',
degauss = 0.001,
DeltaE = 0.001,
filpdos = 'Co2Fe2.pdos.out',
filproj = 'Co2Fe2.proj.out',
/
