&INPUTPP
prefix = 'Cr2Fe2_beef',
outdir = './Cr2Fe2',
filplot = 'Cr2Fe2-wf.dat',
plot_num = 11
/
