&DOS
prefix = 'Cr2Fe2_beef',
outdir = './Cr2Fe2',
degauss = 0.001,
DeltaE = 0.001,
fildos = 'Cr2Fe2.dos.out',
/
