&PROJWFC
prefix = 'Cr2Fe2_beef',
outdir = './Cr2Fe2',
degauss = 0.001,
DeltaE = 0.001,
filpdos = 'Cr2Fe2.pdos.out',
filproj = 'Cr2Fe2.proj.out',
/
