&PROJWFC
prefix = 'Fe2La2_beef',
outdir = './Fe2La2',
degauss = 0.001,
DeltaE = 0.001,
filpdos = 'Fe2La2.pdos.out',
filproj = 'Fe2La2.proj.out',
/
