&DOS
prefix = 'Fe2La2_beef',
outdir = './Fe2La2',
degauss = 0.001,
DeltaE = 0.001,
fildos = 'Fe2La2.dos.out',
/
