&INPUTPP
prefix = 'Fe2La2_beef',
outdir = './Fe2La2',
filplot = 'Fe2La2-wf.dat',
plot_num = 11
/
