&CONTROL
   calculation      = 'scf'
   tstress          = .true.
   tprnfor          = .true.
   outdir           = './Hf2Os2'
   prefix           = 'Hf2Os2_beef'
   pseudo_dir       = '../pseudo'
   tefield          = .true.
   dipfield         = .true.
/
&SYSTEM
   celldm(1)        = 1.889726
   ecutwfc          = 55.123963237125
   ecutrho          = 551.23963237125
   nosym            = .true.
   occupations      = 'smearing'
   degauss          = 0.01D0
   smearing         = 'fd'
   input_dft        = 'BEEF-vdW'
   edir             = 3
   emaxpos          = 0.95
   eopreg           = 0.05
   eamp             = 0.01
   ntyp             = 2
   nat              = 12
   ibrav            = 0
/
&ELECTRONS
   electron_maxstep = 500
   conv_thr         = 1e-05
   mixing_mode      = 'plain'
   mixing_beta      = 0.1
   mixing_ndim      = 10
/
&IONS
/
&CELL
/

ATOMIC_SPECIES
Hf 178.49 Hf.pbe-spn-rrkjus_psl.1.0.0.UPF
Os 190.23 Os.pbe-spn-rrkjus_psl.1.0.0.UPF

K_POINTS automatic
12 12 1  0 0 0

CELL_PARAMETERS alat
5.64952000000000 0.00000000000000 0.00000000000000
1.91692100000000 5.31436700000000 0.00000000000000
0.00000000000000 0.00000000000000 24.62272200000000

ATOMIC_POSITIONS alat
Hf 0.0000000000 0.0000000000 10.0000000000 
Hf 3.7832206000 2.6571833000 10.0000000000 
Os 2.8247601000 0.0000000000 10.0000000000 
Os 0.9584605000 2.6571833000 10.0000000000 
Hf 5.6495203000 3.9679978000 12.3113608000 
Hf 1.8662997000 1.3108145000 12.3113608000 
Os 2.8247601000 3.9679978000 12.3113608000 
Os 4.6910598000 1.3108145000 12.3113608000 
Hf 3.7499205000 2.6337866000 14.6326846000 
Hf 7.5331256000 5.2909731000 14.6326866000 
Os 6.5664906000 2.6280633000 14.4752175000 
Os 4.7002246000 5.2852321000 14.4751899000 

