&CONTROL
   calculation      = 'scf'
   tstress          = .true.
   tprnfor          = .true.
   outdir           = './Hf2Pt2'
   prefix           = 'Hf2Pt2_beef'
   pseudo_dir       = '../pseudo'
   tefield          = .true.
   dipfield         = .true.
/
&SYSTEM
   celldm(1)        = 1.889726
   ecutwfc          = 55.123963237125
   ecutrho          = 551.23963237125
   nosym            = .true.
   occupations      = 'smearing'
   degauss          = 0.01D0
   smearing         = 'fd'
   input_dft        = 'BEEF-vdW'
   edir             = 3
   emaxpos          = 0.95
   eopreg           = 0.05
   eamp             = 0.01
   ntyp             = 2
   nat              = 12
   ibrav            = 0
/
&ELECTRONS
   electron_maxstep = 500
   conv_thr         = 1e-05
   mixing_mode      = 'plain'
   mixing_beta      = 0.1
   mixing_ndim      = 10
/
&IONS
/
&CELL
/

ATOMIC_SPECIES
Hf 178.49 Hf.pbe-spn-rrkjus_psl.1.0.0.UPF
Pt 195.084 Pt.pbe-n-rrkjus_psl.1.0.0.UPF

K_POINTS automatic
12 12 1  0 0 0

CELL_PARAMETERS alat
5.77632800000000 0.00000000000000 0.00000000000000
2.03434900000000 5.40623700000000 0.00000000000000
0.00000000000000 0.00000000000000 24.74542400000000

ATOMIC_POSITIONS alat
Hf 0.0000000000 0.0000000000 10.0000000000 
Hf 3.9053385000 2.7031183000 10.0000000000 
Pt 2.8881641000 0.0000000000 10.0000000000 
Pt 1.0171743000 2.7031183000 10.0000000000 
Hf 5.7763282000 3.9981422000 12.3727118000 
Hf 1.8709898000 1.2950239000 12.3727118000 
Pt 2.8881641000 3.9981422000 12.3727118000 
Pt 4.7591539000 1.2950239000 12.3727118000 
Hf 3.7592222000 2.6019831000 14.7375177000 
Hf 7.6645584000 5.3050994000 14.7375173000 
Pt 6.6479524000 2.6023731000 14.5552887000 
Pt 4.7769624000 5.3054937000 14.5552879000 

