&CONTROL
   calculation      = 'scf'
   tstress          = .true.
   tprnfor          = .true.
   outdir           = './Hf2Ta2'
   prefix           = 'Hf2Ta2_beef'
   pseudo_dir       = '../pseudo'
   tefield          = .true.
   dipfield         = .true.
/
&SYSTEM
   celldm(1)        = 1.889726
   ecutwfc          = 55.123963237125
   ecutrho          = 551.23963237125
   nosym            = .true.
   occupations      = 'smearing'
   degauss          = 0.01D0
   smearing         = 'fd'
   input_dft        = 'BEEF-vdW'
   edir             = 3
   emaxpos          = 0.95
   eopreg           = 0.05
   eamp             = 0.01
   ntyp             = 2
   nat              = 12
   ibrav            = 0
/
&ELECTRONS
   electron_maxstep = 500
   conv_thr         = 1e-05
   mixing_mode      = 'plain'
   mixing_beta      = 0.1
   mixing_ndim      = 10
/
&IONS
/
&CELL
/

ATOMIC_SPECIES
Hf 178.49 Hf.pbe-spn-rrkjus_psl.1.0.0.UPF
Ta 180.94788 Ta.pbe-spfn-rrkjus_psl.1.0.0.UPF

K_POINTS automatic
12 12 1  0 0 0

CELL_PARAMETERS alat
5.91496500000000 0.00000000000000 0.00000000000000
-2.95748200000000 5.50032000000000 0.00000000000000
0.00000000000000 0.00000000000000 24.98714800000000

ATOMIC_POSITIONS alat
Hf 0.0000000000 0.0000000000 10.0000000000 
Hf 2.9574825000 0.0000000000 10.0000000000 
Ta 1.4787412000 2.7501599000 10.0000000000 
Ta -1.4787412000 2.7501599000 10.0000000000 
Hf 2.9574825000 1.5902171000 12.4935742000 
Hf 0.0000000000 1.5902171000 12.4935742000 
Ta -1.4787412000 4.3403770000 12.4935742000 
Ta 1.4787412000 4.3403770000 12.4935742000 
Hf -0.0001352000 3.2402426000 14.9977231000 
Hf 2.9573457000 3.2402484000 14.9977314000 
Ta 4.4362092000 0.3883103000 14.8001991000 
Ta 1.4787193000 0.3883052000 14.8001955000 

