&CONTROL
   calculation      = 'scf'
   tstress          = .true.
   tprnfor          = .true.
   outdir           = './Pd2Hf2'
   prefix           = 'Pd2Hf2_beef'
   pseudo_dir       = '../pseudo'
   tefield          = .true.
   dipfield         = .true.
/
&SYSTEM
   celldm(1)        = 1.889726
   ecutwfc          = 55.123963237125
   ecutrho          = 551.23963237125
   nosym            = .true.
   occupations      = 'smearing'
   degauss          = 0.01D0
   smearing         = 'fd'
   input_dft        = 'BEEF-vdW'
   edir             = 3
   emaxpos          = 0.95
   eopreg           = 0.05
   eamp             = 0.01
   ntyp             = 2
   nat              = 12
   ibrav            = 0
/
&ELECTRONS
   electron_maxstep = 500
   conv_thr         = 1e-05
   mixing_mode      = 'plain'
   mixing_beta      = 0.1
   mixing_ndim      = 10
/
&IONS
/
&CELL
/

ATOMIC_SPECIES
Pd 106.42 Pd.pbe-n-rrkjus_psl.1.0.0.UPF
Hf 178.49 Hf.pbe-spn-rrkjus_psl.1.0.0.UPF

K_POINTS automatic
12 12 1  0 0 0

CELL_PARAMETERS alat
5.77540700000000 0.00000000000000 0.00000000000000
2.07090500000000 5.39135300000000 0.00000000000000
0.00000000000000 0.00000000000000 24.75262500000000

ATOMIC_POSITIONS alat
Pd 0.0000000000 0.0000000000 10.0000000000 
Pd 3.9231559000 2.6956763000 10.0000000000 
Hf 2.8877036000 0.0000000000 10.0000000000 
Hf 1.0354523000 2.6956763000 10.0000000000 
Pd 5.7754072000 3.9683940000 12.3763123000 
Pd 1.8522513000 1.2727177000 12.3763123000 
Hf 2.8877036000 3.9683940000 12.3763123000 
Hf 4.7399549000 1.2727177000 12.3763123000 
Pd 3.7133256000 2.5514974000 14.6130157000 
Pd 7.6364840000 5.2471740000 14.6130151000 
Hf 6.6104095000 2.5579440000 14.7248645000 
Hf 4.7581620000 5.2536214000 14.7248668000 

