&CONTROL
   calculation      = 'scf'
   tstress          = .true.
   tprnfor          = .true.
   outdir           = './Pd2Ta2'
   prefix           = 'Pd2Ta2_beef'
   pseudo_dir       = '../pseudo'
   tefield          = .true.
   dipfield         = .true.
/
&SYSTEM
   celldm(1)        = 1.889726
   ecutwfc          = 55.123963237125
   ecutrho          = 551.23963237125
   nosym            = .true.
   occupations      = 'smearing'
   degauss          = 0.01D0
   smearing         = 'fd'
   input_dft        = 'BEEF-vdW'
   edir             = 3
   emaxpos          = 0.95
   eopreg           = 0.05
   eamp             = 0.01
   ntyp             = 2
   nat              = 12
   ibrav            = 0
/
&ELECTRONS
   electron_maxstep = 500
   conv_thr         = 1e-05
   mixing_mode      = 'plain'
   mixing_beta      = 0.1
   mixing_ndim      = 10
/
&IONS
/
&CELL
/

ATOMIC_SPECIES
Pd 106.42 Pd.pbe-n-rrkjus_psl.1.0.0.UPF
Ta 180.94788 Ta.pbe-spfn-rrkjus_psl.1.0.0.UPF

K_POINTS automatic
12 12 1  0 0 0

CELL_PARAMETERS alat
5.65781900000000 0.00000000000000 0.00000000000000
-2.82891000000000 5.01214400000000 0.00000000000000
0.00000000000000 0.00000000000000 24.67049500000000

ATOMIC_POSITIONS alat
Pd 0.0000000000 0.0000000000 10.0000000000 
Pd 2.8289096000 0.0000000000 10.0000000000 
Ta 1.4144548000 2.5060721000 10.0000000000 
Ta -1.4144548000 2.5060721000 10.0000000000 
Pd 2.8289096000 1.5966678000 12.3352476000 
Pd 0.0000000000 1.5966678000 12.3352476000 
Ta -1.4144548000 4.1027399000 12.3352476000 
Ta 1.4144548000 4.1027399000 12.3352476000 
Pd -0.0000016000 3.3049555000 14.6599492000 
Pd 2.8289098000 3.3049547000 14.6599491000 
Ta 4.2433637000 0.7466920000 14.5489913000 
Ta 1.4144545000 0.7466952000 14.5489922000 

