&CONTROL
   calculation      = 'scf'
   tstress          = .true.
   tprnfor          = .true.
   outdir           = './Sc2Hf2'
   prefix           = 'Sc2Hf2_beef'
   pseudo_dir       = '../pseudo'
   tefield          = .true.
   dipfield         = .true.
/
&SYSTEM
   celldm(1)        = 1.889726
   ecutwfc          = 55.123963237125
   ecutrho          = 551.23963237125
   nosym            = .true.
   occupations      = 'smearing'
   degauss          = 0.01D0
   smearing         = 'fd'
   input_dft        = 'BEEF-vdW'
   edir             = 3
   emaxpos          = 0.95
   eopreg           = 0.05
   eamp             = 0.01
   ntyp             = 2
   nat              = 12
   ibrav            = 0
/
&ELECTRONS
   electron_maxstep = 500
   conv_thr         = 1e-05
   mixing_mode      = 'plain'
   mixing_beta      = 0.1
   mixing_ndim      = 10
/
&IONS
/
&CELL
/

ATOMIC_SPECIES
Sc 44.955908 Sc.pbe-spn-rrkjus_psl.1.0.0.UPF
Hf 178.49 Hf.pbe-spn-rrkjus_psl.1.0.0.UPF

K_POINTS automatic
12 12 1  0 0 0

CELL_PARAMETERS alat
6.32156900000000 0.00000000000000 0.00000000000000
-3.16078500000000 5.55892200000000 0.00000000000000
0.00000000000000 0.00000000000000 25.20022700000000

ATOMIC_POSITIONS alat
Sc 0.0000000000 0.0000000000 10.0000000000 
Sc 3.1607846000 0.0000000000 10.0000000000 
Hf 1.5803923000 2.7794608000 10.0000000000 
Hf -1.5803923000 2.7794608000 10.0000000000 
Sc 3.1607846000 1.7972117000 12.6001133000 
Sc -0.0000000000 1.7972117000 12.6001133000 
Hf -1.5803923000 4.5766725000 12.6001133000 
Hf 1.5803923000 4.5766725000 12.6001133000 
Sc 0.0000079000 3.6100791000 15.1920958000 
Sc 3.1607734000 3.6097393000 15.1921793000 
Hf 4.7415035000 0.7939968000 15.0341800000 
Hf 1.5800697000 0.7939864000 15.0341758000 

