&CONTROL
   calculation      = 'scf'
   tstress          = .true.
   tprnfor          = .true.
   outdir           = './Sc2Ta2'
   prefix           = 'Sc2Ta2_beef'
   pseudo_dir       = '../pseudo'
   tefield          = .true.
   dipfield         = .true.
/
&SYSTEM
   celldm(1)        = 1.889726
   ecutwfc          = 55.123963237125
   ecutrho          = 551.23963237125
   nosym            = .true.
   occupations      = 'smearing'
   degauss          = 0.01D0
   smearing         = 'fd'
   input_dft        = 'BEEF-vdW'
   edir             = 3
   emaxpos          = 0.95
   eopreg           = 0.05
   eamp             = 0.01
   ntyp             = 2
   nat              = 12
   ibrav            = 0
/
&ELECTRONS
   electron_maxstep = 500
   conv_thr         = 1e-05
   mixing_mode      = 'plain'
   mixing_beta      = 0.1
   mixing_ndim      = 10
/
&IONS
/
&CELL
/

ATOMIC_SPECIES
Sc 44.955908 Sc.pbe-spn-rrkjus_psl.1.0.0.UPF
Ta 180.94788 Ta.pbe-spfn-rrkjus_psl.1.0.0.UPF

K_POINTS automatic
12 12 1  0 0 0

CELL_PARAMETERS alat
5.74503800000000 0.00000000000000 0.00000000000000
-2.87251900000000 5.71123000000000 0.00000000000000
0.00000000000000 0.00000000000000 24.96549300000000

ATOMIC_POSITIONS alat
Sc 0.0000000000 0.0000000000 10.0000000000 
Sc 2.8725191000 0.0000000000 10.0000000000 
Ta 1.4362595000 2.8556149000 10.0000000000 
Ta -1.4362595000 2.8556149000 10.0000000000 
Sc 2.8725191000 1.4447617000 12.4827464000 
Sc 0.0000000000 1.4447617000 12.4827464000 
Ta -1.4362595000 4.3003765000 12.4827464000 
Ta 1.4362595000 4.3003765000 12.4827464000 
Sc -0.0000994000 3.1037620000 14.9904022000 
Sc 2.8723909000 3.1037811000 14.9903996000 
Ta 4.3087859000 0.1132187000 14.7474590000 
Ta 1.4363330000 0.1132057000 14.7474532000 

