&CONTROL
   calculation      = 'scf'
   tstress          = .true.
   tprnfor          = .true.
   outdir           = './Ta2Os2'
   prefix           = 'Ta2Os2_beef'
   pseudo_dir       = '../pseudo'
   tefield          = .true.
   dipfield         = .true.
/
&SYSTEM
   celldm(1)        = 1.889726
   ecutwfc          = 55.123963237125
   ecutrho          = 551.23963237125
   nosym            = .true.
   occupations      = 'smearing'
   degauss          = 0.01D0
   smearing         = 'fd'
   input_dft        = 'BEEF-vdW'
   edir             = 3
   emaxpos          = 0.95
   eopreg           = 0.05
   eamp             = 0.01
   ntyp             = 2
   nat              = 12
   ibrav            = 0
/
&ELECTRONS
   electron_maxstep = 500
   conv_thr         = 1e-05
   mixing_mode      = 'plain'
   mixing_beta      = 0.1
   mixing_ndim      = 10
/
&IONS
/
&CELL
/

ATOMIC_SPECIES
Ta 180.94788 Ta.pbe-spfn-rrkjus_psl.1.0.0.UPF
Os 190.23 Os.pbe-spn-rrkjus_psl.1.0.0.UPF

K_POINTS automatic
12 12 1  0 0 0

CELL_PARAMETERS alat
5.54952100000000 0.00000000000000 0.00000000000000
2.17769200000000 5.10439500000000 0.00000000000000
0.00000000000000 0.00000000000000 24.59279800000000

ATOMIC_POSITIONS alat
Ta 0.0000000000 0.0000000000 10.0000000000 
Ta 3.8636070000 2.5521973000 10.0000000000 
Os 2.7747607000 0.0000000000 10.0000000000 
Os 1.0888462000 2.5521973000 10.0000000000 
Ta 5.5495215000 3.6658681000 12.2963990000 
Ta 1.6859145000 1.1136708000 12.2963990000 
Os 2.7747607000 3.6658681000 12.2963990000 
Os 4.4606752000 1.1136708000 12.2963990000 
Ta 3.6342994000 2.4007279000 14.5898308000 
Ta 7.4979114000 4.9529192000 14.5898312000 
Os 6.4145546000 2.4043511000 14.4022703000 
Os 4.7286360000 4.9565502000 14.4022658000 

