&CONTROL
   calculation      = 'scf'
   tstress          = .true.
   tprnfor          = .true.
   outdir           = './Ta2W2'
   prefix           = 'Ta2W2_beef'
   pseudo_dir       = '../pseudo'
   tefield          = .true.
   dipfield         = .true.
/
&SYSTEM
   celldm(1)        = 1.889726
   ecutwfc          = 55.123963237125
   ecutrho          = 551.23963237125
   nosym            = .true.
   occupations      = 'smearing'
   degauss          = 0.01D0
   smearing         = 'fd'
   input_dft        = 'BEEF-vdW'
   edir             = 3
   emaxpos          = 0.95
   eopreg           = 0.05
   eamp             = 0.01
   ntyp             = 2
   nat              = 12
   ibrav            = 0
/
&ELECTRONS
   electron_maxstep = 500
   conv_thr         = 1e-05
   mixing_mode      = 'plain'
   mixing_beta      = 0.1
   mixing_ndim      = 10
/
&IONS
/
&CELL
/

ATOMIC_SPECIES
Ta 180.94788 Ta.pbe-spfn-rrkjus_psl.1.0.0.UPF
W 183.84 W.pbe-spn-rrkjus_psl.0.2.3.UPF

K_POINTS automatic
12 12 1  0 0 0

CELL_PARAMETERS alat
5.44887300000000 0.00000000000000 0.00000000000000
-2.72443600000000 5.43292800000000 0.00000000000000
0.00000000000000 0.00000000000000 24.71423700000000

ATOMIC_POSITIONS alat
Ta 0.0000000000 0.0000000000 10.0000000000 
Ta 2.7244364000 0.0000000000 10.0000000000 
W 1.3622182000 2.7164642000 10.0000000000 
W -1.3622182000 2.7164642000 10.0000000000 
Ta 2.7244364000 1.3662160000 12.3571185000 
Ta -0.0000000000 1.3662160000 12.3571185000 
W -1.3622182000 4.0826803000 12.3571185000 
W 1.3622182000 4.0826803000 12.3571185000 
Ta -0.0000029000 2.7534352000 14.7476260000 
Ta 2.7244325000 2.7534510000 14.7476361000 
W 1.3622392000 5.4261129000 14.6063897000 
W -1.3622345000 5.4261099000 14.6063836000 

