&CONTROL
   calculation      = 'scf'
   tstress          = .true.
   tprnfor          = .true.
   outdir           = './Zn2Ta2'
   prefix           = 'Zn2Ta2_beef'
   pseudo_dir       = '../pseudo'
   tefield          = .true.
   dipfield         = .true.
/
&SYSTEM
   celldm(1)        = 1.889726
   ecutwfc          = 55.123963237125
   ecutrho          = 551.23963237125
   nosym            = .true.
   occupations      = 'smearing'
   degauss          = 0.01D0
   smearing         = 'fd'
   input_dft        = 'BEEF-vdW'
   edir             = 3
   emaxpos          = 0.95
   eopreg           = 0.05
   eamp             = 0.01
   ntyp             = 2
   nat              = 12
   ibrav            = 0
/
&ELECTRONS
   electron_maxstep = 500
   conv_thr         = 1e-05
   mixing_mode      = 'plain'
   mixing_beta      = 0.1
   mixing_ndim      = 10
/
&IONS
/
&CELL
/

ATOMIC_SPECIES
Zn 65.38 Zn.pbe-spn-rrkjus_psl.1.0.0.UPF
Ta 180.94788 Ta.pbe-spfn-rrkjus_psl.1.0.0.UPF

K_POINTS automatic
12 12 1  0 0 0

CELL_PARAMETERS alat
5.66913600000000 0.00000000000000 0.00000000000000
2.81338300000000 4.92178600000000 0.00000000000000
0.00000000000000 0.00000000000000 24.63447700000000

ATOMIC_POSITIONS alat
Zn 0.0000000000 0.0000000000 10.0000000000 
Zn 4.2412595000 2.4608930000 10.0000000000 
Ta 2.8345679000 0.0000000000 10.0000000000 
Ta 1.4066916000 2.4608930000 10.0000000000 
Zn 5.6691359000 3.2893853000 12.3172386000 
Zn 1.4278764000 0.8284923000 12.3172386000 
Ta 2.8345679000 3.2893853000 12.3172386000 
Ta 4.2624443000 0.8284923000 12.3172386000 
Zn 2.8282018000 1.6409787000 14.7548942000 
Zn 7.0694393000 4.1019018000 14.7548909000 
Ta 5.6669624000 1.6434316000 14.5601341000 
Ta 4.2390687000 4.1043135000 14.5601292000 

