&DOS
prefix = 'Fe2Pt2_beef',
outdir = './Fe2Pt2',
degauss = 0.001,
DeltaE = 0.001,
fildos = 'Fe2Pt2.dos.out',
/
