&PROJWFC
prefix = 'Fe2Pt2_beef',
outdir = './Fe2Pt2',
degauss = 0.001,
DeltaE = 0.001,
filpdos = 'Fe2Pt2.pdos.out',
filproj = 'Fe2Pt2.proj.out',
/
