&INPUTPP
prefix = 'Fe2Pt2_beef',
outdir = './Fe2Pt2',
filplot = 'Fe2Pt2-wf.dat',
plot_num = 11
/
