&INPUTPP
prefix = 'Fe2Pd2_beef',
outdir = './Fe2Pd2',
filplot = 'Fe2Pd2-wf.dat',
plot_num = 11
/
