&PROJWFC
prefix = 'Fe2Pd2_beef',
outdir = './Fe2Pd2',
degauss = 0.001,
DeltaE = 0.001,
filpdos = 'Fe2Pd2.pdos.out',
filproj = 'Fe2Pd2.proj.out',
/
