&DOS
prefix = 'Fe2Pd2_beef',
outdir = './Fe2Pd2',
degauss = 0.001,
DeltaE = 0.001,
fildos = 'Fe2Pd2.dos.out',
/
