&DOS
prefix = 'Fe2Rh2_beef',
outdir = './Fe2Rh2',
degauss = 0.001,
DeltaE = 0.001,
fildos = 'Fe2Rh2.dos.out',
/
