&PROJWFC
prefix = 'Fe2Rh2_beef',
outdir = './Fe2Rh2',
degauss = 0.001,
DeltaE = 0.001,
filpdos = 'Fe2Rh2.pdos.out',
filproj = 'Fe2Rh2.proj.out',
/
