&INPUTPP
prefix = 'Fe2Rh2_beef',
outdir = './Fe2Rh2',
filplot = 'Fe2Rh2-wf.dat',
plot_num = 11
/
