&DOS
prefix = 'Ag2Au2_beef',
outdir = './Ag2Au2',
degauss = 0.001,
DeltaE = 0.001,
fildos = 'Ag2Au2.dos.out',
/
