&PROJWFC
prefix = 'Ag2Au2_beef',
outdir = './Ag2Au2',
degauss = 0.001,
DeltaE = 0.001,
filpdos = 'Ag2Au2.pdos.out',
filproj = 'Ag2Au2.proj.out',
/
