&INPUTPP
prefix = 'Ag2Au2_beef',
outdir = './Ag2Au2',
filplot = 'Ag2Au2-wf.dat',
plot_num = 11
/
