&INPUTPP
prefix = 'Ag2Cd2_beef',
outdir = './Ag2Cd2',
filplot = 'Ag2Cd2-wf.dat',
plot_num = 11
/
