&DOS
prefix = 'Ag2Cd2_beef',
outdir = './Ag2Cd2',
degauss = 0.001,
DeltaE = 0.001,
fildos = 'Ag2Cd2.dos.out',
/
