&INPUTPP
prefix = 'Ag2Hg2_beef',
outdir = './Ag2Hg2',
filplot = 'Ag2Hg2-wf.dat',
plot_num = 11
/
