&DOS
prefix = 'Ag2Hg2_beef',
outdir = './Ag2Hg2',
degauss = 0.001,
DeltaE = 0.001,
fildos = 'Ag2Hg2.dos.out',
/
