&DOS
prefix = 'Ag2Os2_beef',
outdir = './Ag2Os2',
degauss = 0.001,
DeltaE = 0.001,
fildos = 'Ag2Os2.dos.out',
/
