&DOS
prefix = 'Ag2Y2_beef',
outdir = './Ag2Y2',
degauss = 0.001,
DeltaE = 0.001,
fildos = 'Ag2Y2.dos.out',
/
