&INPUTPP
prefix = 'Cr2Ag2_beef',
outdir = './Cr2Ag2',
filplot = 'Cr2Ag2-wf.dat',
plot_num = 11
/
