&DOS
prefix = 'Cr2Ag2_beef',
outdir = './Cr2Ag2',
degauss = 0.001,
DeltaE = 0.001,
fildos = 'Cr2Ag2.dos.out',
/
