&DOS
prefix = 'Cr2Cu2_beef',
outdir = './Cr2Cu2',
degauss = 0.001,
DeltaE = 0.001,
fildos = 'Cr2Cu2.dos.out',
/
