&PROJWFC
prefix = 'Cr2Cu2_beef',
outdir = './Cr2Cu2',
degauss = 0.001,
DeltaE = 0.001,
filpdos = 'Cr2Cu2.pdos.out',
filproj = 'Cr2Cu2.proj.out',
/
