&DOS
prefix = 'Cr2Ru2_beef',
outdir = './Cr2Ru2',
degauss = 0.001,
DeltaE = 0.001,
fildos = 'Cr2Ru2.dos.out',
/
