&PROJWFC
prefix = 'Cr2Ru2_beef',
outdir = './Cr2Ru2',
degauss = 0.001,
DeltaE = 0.001,
filpdos = 'Cr2Ru2.pdos.out',
filproj = 'Cr2Ru2.proj.out',
/
