&DOS
prefix = 'Cu2Ag2_beef',
outdir = './Cu2Ag2',
degauss = 0.001,
DeltaE = 0.001,
fildos = 'Cu2Ag2.dos.out',
/
