&DOS
prefix = 'Cu2Au2_beef',
outdir = './Cu2Au2',
degauss = 0.001,
DeltaE = 0.001,
fildos = 'Cu2Au2.dos.out',
/
