&INPUTPP
prefix = 'Cu2Au2_beef',
outdir = './Cu2Au2',
filplot = 'Cu2Au2-wf.dat',
plot_num = 11
/
