&INPUTPP
prefix = 'Cu2Cd2_beef',
outdir = './Cu2Cd2',
filplot = 'Cu2Cd2-wf.dat',
plot_num = 11
/
