&DOS
prefix = 'Cu2Hg2_beef',
outdir = './Cu2Hg2',
degauss = 0.001,
DeltaE = 0.001,
fildos = 'Cu2Hg2.dos.out',
/
