&PROJWFC
prefix = 'Cu2Hg2_beef',
outdir = './Cu2Hg2',
degauss = 0.001,
DeltaE = 0.001,
filpdos = 'Cu2Hg2.pdos.out',
filproj = 'Cu2Hg2.proj.out',
/
