&INPUTPP
prefix = 'Cu2Mo2_beef',
outdir = './Cu2Mo2',
filplot = 'Cu2Mo2-wf.dat',
plot_num = 11
/
