&DOS
prefix = 'Cu2Nb2_beef',
outdir = './Cu2Nb2',
degauss = 0.001,
DeltaE = 0.001,
fildos = 'Cu2Nb2.dos.out',
/
