&DOS
prefix = 'Cu2Os2_beef',
outdir = './Cu2Os2',
degauss = 0.001,
DeltaE = 0.001,
fildos = 'Cu2Os2.dos.out',
/
