&PROJWFC
prefix = 'Cu2Os2_beef',
outdir = './Cu2Os2',
degauss = 0.001,
DeltaE = 0.001,
filpdos = 'Cu2Os2.pdos.out',
filproj = 'Cu2Os2.proj.out',
/
