&DOS
prefix = 'Cu2Ru2_beef',
outdir = './Cu2Ru2',
degauss = 0.001,
DeltaE = 0.001,
fildos = 'Cu2Ru2.dos.out',
/
