&INPUTPP
prefix = 'Cu2Y2_beef',
outdir = './Cu2Y2',
filplot = 'Cu2Y2-wf.dat',
plot_num = 11
/
