&DOS
prefix = 'Cu2Y2_beef',
outdir = './Cu2Y2',
degauss = 0.001,
DeltaE = 0.001,
fildos = 'Cu2Y2.dos.out',
/
