&DOS
prefix = 'Cu2Zr2_beef',
outdir = './Cu2Zr2',
degauss = 0.001,
DeltaE = 0.001,
fildos = 'Cu2Zr2.dos.out',
/
