&PROJWFC
prefix = 'Mo2Ru2_beef',
outdir = './Mo2Ru2',
degauss = 0.001,
DeltaE = 0.001,
filpdos = 'Mo2Ru2.pdos.out',
filproj = 'Mo2Ru2.proj.out',
/
