&DOS
prefix = 'Mo2Ru2_beef',
outdir = './Mo2Ru2',
degauss = 0.001,
DeltaE = 0.001,
fildos = 'Mo2Ru2.dos.out',
/
