&PROJWFC
prefix = 'Nb2Ag2_beef',
outdir = './Nb2Ag2',
degauss = 0.001,
DeltaE = 0.001,
filpdos = 'Nb2Ag2.pdos.out',
filproj = 'Nb2Ag2.proj.out',
/
