&INPUTPP
prefix = 'Nb2Ag2_beef',
outdir = './Nb2Ag2',
filplot = 'Nb2Ag2-wf.dat',
plot_num = 11
/
