&DOS
prefix = 'Nb2Ru2_beef',
outdir = './Nb2Ru2',
degauss = 0.001,
DeltaE = 0.001,
fildos = 'Nb2Ru2.dos.out',
/
