&INPUTPP
prefix = 'Nb2Ru2_beef',
outdir = './Nb2Ru2',
filplot = 'Nb2Ru2-wf.dat',
plot_num = 11
/
