&DOS
prefix = 'Rh2Ag2_beef',
outdir = './Rh2Ag2',
degauss = 0.001,
DeltaE = 0.001,
fildos = 'Rh2Ag2.dos.out',
/
