&DOS
prefix = 'Ru2Ag2_beef',
outdir = './Ru2Ag2',
degauss = 0.001,
DeltaE = 0.001,
fildos = 'Ru2Ag2.dos.out',
/
