&PROJWFC
prefix = 'Ru2Ag2_beef',
outdir = './Ru2Ag2',
degauss = 0.001,
DeltaE = 0.001,
filpdos = 'Ru2Ag2.pdos.out',
filproj = 'Ru2Ag2.proj.out',
/
