&INPUTPP
prefix = 'Ru2Cd2_beef',
outdir = './Ru2Cd2',
filplot = 'Ru2Cd2-wf.dat',
plot_num = 11
/
