&DOS
prefix = 'Ru2Cd2_beef',
outdir = './Ru2Cd2',
degauss = 0.001,
DeltaE = 0.001,
fildos = 'Ru2Cd2.dos.out',
/
