&PROJWFC
prefix = 'Ru2Hg2_beef',
outdir = './Ru2Hg2',
degauss = 0.001,
DeltaE = 0.001,
filpdos = 'Ru2Hg2.pdos.out',
filproj = 'Ru2Hg2.proj.out',
/
