&DOS
prefix = 'Ru2Hg2_beef',
outdir = './Ru2Hg2',
degauss = 0.001,
DeltaE = 0.001,
fildos = 'Ru2Hg2.dos.out',
/
