&PROJWFC
prefix = 'Ru2Os2_beef',
outdir = './Ru2Os2',
degauss = 0.001,
DeltaE = 0.001,
filpdos = 'Ru2Os2.pdos.out',
filproj = 'Ru2Os2.proj.out',
/
