&DOS
prefix = 'Ru2Os2_beef',
outdir = './Ru2Os2',
degauss = 0.001,
DeltaE = 0.001,
fildos = 'Ru2Os2.dos.out',
/
