&PROJWFC
prefix = 'Ru2Rh2_beef',
outdir = './Ru2Rh2',
degauss = 0.001,
DeltaE = 0.001,
filpdos = 'Ru2Rh2.pdos.out',
filproj = 'Ru2Rh2.proj.out',
/
