&INPUTPP
prefix = 'Ru2Rh2_beef',
outdir = './Ru2Rh2',
filplot = 'Ru2Rh2-wf.dat',
plot_num = 11
/
