&PROJWFC
prefix = 'Ru2Y2_beef',
outdir = './Ru2Y2',
degauss = 0.001,
DeltaE = 0.001,
filpdos = 'Ru2Y2.pdos.out',
filproj = 'Ru2Y2.proj.out',
/
