&INPUTPP
prefix = 'Sc2Ag2_beef',
outdir = './Sc2Ag2',
filplot = 'Sc2Ag2-wf.dat',
plot_num = 11
/
