&INPUTPP
prefix = 'Sc2Cu2_beef',
outdir = './Sc2Cu2',
filplot = 'Sc2Cu2-wf.dat',
plot_num = 11
/
