&PROJWFC
prefix = 'Sc2Cu2_beef',
outdir = './Sc2Cu2',
degauss = 0.001,
DeltaE = 0.001,
filpdos = 'Sc2Cu2.pdos.out',
filproj = 'Sc2Cu2.proj.out',
/
