&DOS
prefix = 'Sc2Ru2_beef',
outdir = './Sc2Ru2',
degauss = 0.001,
DeltaE = 0.001,
fildos = 'Sc2Ru2.dos.out',
/
