&INPUTPP
prefix = 'Zr2Ru2_beef',
outdir = './Zr2Ru2',
filplot = 'Zr2Ru2-wf.dat',
plot_num = 11
/
