&CONTROL
   calculation      = 'scf'
   tstress          = .true.
   tprnfor          = .true.
   outdir           = './Cd2Os2'
   prefix           = 'Cd2Os2_beef'
   pseudo_dir       = '../pseudo'
   tefield          = .true.
   dipfield         = .true.
/
&SYSTEM
   celldm(1)        = 1.889726
   ecutwfc          = 55.123963237125
   ecutrho          = 551.23963237125
   nosym            = .true.
   occupations      = 'smearing'
   degauss          = 0.01D0
   smearing         = 'fd'
   input_dft        = 'BEEF-vdW'
   edir             = 3
   emaxpos          = 0.95
   eopreg           = 0.05
   eamp             = 0.01
   ntyp             = 2
   nat              = 12
   ibrav            = 0
/
&ELECTRONS
   electron_maxstep = 500
   conv_thr         = 1e-05
   mixing_mode      = 'plain'
   mixing_beta      = 0.1
   mixing_ndim      = 10
/
&IONS
/
&CELL
/

ATOMIC_SPECIES
Cd 112.414 Cd.pbe-n-rrkjus_psl.1.0.0.UPF
Os 190.23 Os.pbe-spn-rrkjus_psl.1.0.0.UPF

K_POINTS automatic
12 12 1  0 0 0

CELL_PARAMETERS alat
5.54895600000000 0.00000000000000 0.00000000000000
-2.77447800000000 5.27775400000000 0.00000000000000
0.00000000000000 0.00000000000000 24.72035400000000

ATOMIC_POSITIONS alat
Cd 0.0000000000 0.0000000000 10.0000000000 
Cd 2.7744778000 0.0000000000 10.0000000000 
Os 1.3872389000 2.6388769000 10.0000000000 
Os -1.3872389000 2.6388769000 10.0000000000 
Cd 2.7744778000 1.4585233000 12.3601772000 
Cd -0.0000000000 1.4585233000 12.3601772000 
Os -1.3872389000 4.0974002000 12.3601772000 
Os 1.3872389000 4.0974002000 12.3601772000 
Cd -0.0001108000 2.5059093000 15.2184597000 
Cd 2.7743527000 2.5062482000 15.2183613000 
Os 1.3870615000 5.0497164000 14.4815121000 
Os -1.3871014000 5.0498067000 14.4816635000 

