&CONTROL
   calculation      = 'scf'
   tstress          = .true.
   tprnfor          = .true.
   outdir           = './Cr2Hg2'
   prefix           = 'Cr2Hg2_beef'
   pseudo_dir       = '../pseudo'
   tefield          = .true.
   dipfield         = .true.
/
&SYSTEM
   celldm(1)        = 1.889726
   ecutwfc          = 55.123963237125
   ecutrho          = 551.23963237125
   nosym            = .true.
   occupations      = 'smearing'
   degauss          = 0.01D0
   smearing         = 'fd'
   input_dft        = 'BEEF-vdW'
   edir             = 3
   emaxpos          = 0.95
   eopreg           = 0.05
   eamp             = 0.01
   ntyp             = 2
   nat              = 12
   ibrav            = 0
/
&ELECTRONS
   electron_maxstep = 500
   conv_thr         = 1e-05
   mixing_mode      = 'plain'
   mixing_beta      = 0.1
   mixing_ndim      = 10
/
&IONS
/
&CELL
/

ATOMIC_SPECIES
Cr 51.9961 Cr.pbe-spn-rrkjus_psl.1.0.0.UPF
Hg 200.592 Hg.pbe-n-rrkjus_psl.1.0.0.UPF

K_POINTS automatic
12 12 1  0 0 0

CELL_PARAMETERS alat
5.62712800000000 0.00000000000000 0.00000000000000
-2.81356400000000 5.05593700000000 0.00000000000000
0.00000000000000 0.00000000000000 24.67533500000000

ATOMIC_POSITIONS alat
Cr 0.0000000000 0.0000000000 10.0000000000 
Cr 2.8135642000 0.0000000000 10.0000000000 
Hg 1.4067821000 2.5279687000 10.0000000000 
Hg -1.4067821000 2.5279687000 10.0000000000 
Cr 2.8135642000 1.5657123000 12.3376673000 
Cr -0.0000000000 1.5657123000 12.3376673000 
Hg -1.4067821000 4.0936810000 12.3376673000 
Hg 1.4067821000 4.0936810000 12.3376673000 
Cr -0.0000073000 2.1840069000 14.0063574000 
Cr 2.8135644000 2.1838603000 14.0053516000 
Hg 1.4081797000 5.0497020000 15.3861647000 
Hg -1.4081903000 5.0497206000 15.3861669000 

