&CONTROL
   calculation      = 'scf'
   tstress          = .true.
   tprnfor          = .true.
   outdir           = './Cr2Os2'
   prefix           = 'Cr2Os2_beef'
   pseudo_dir       = '../pseudo'
   tefield          = .true.
   dipfield         = .true.
/
&SYSTEM
   celldm(1)        = 1.889726
   ecutwfc          = 55.123963237125
   ecutrho          = 551.23963237125
   nosym            = .true.
   occupations      = 'smearing'
   degauss          = 0.01D0
   smearing         = 'fd'
   input_dft        = 'BEEF-vdW'
   edir             = 3
   emaxpos          = 0.95
   eopreg           = 0.05
   eamp             = 0.01
   ntyp             = 2
   nat              = 12
   ibrav            = 0
/
&ELECTRONS
   electron_maxstep = 500
   conv_thr         = 1e-05
   mixing_mode      = 'plain'
   mixing_beta      = 0.1
   mixing_ndim      = 10
/
&IONS
/
&CELL
/

ATOMIC_SPECIES
Cr 51.9961 Cr.pbe-spn-rrkjus_psl.1.0.0.UPF
Os 190.23 Os.pbe-spn-rrkjus_psl.1.0.0.UPF

K_POINTS automatic
12 12 1  0 0 0

CELL_PARAMETERS alat
5.27884200000000 0.00000000000000 0.00000000000000
2.55450100000000 4.61959900000000 0.00000000000000
0.00000000000000 0.00000000000000 24.33121300000000

ATOMIC_POSITIONS alat
Cr 0.0000000000 0.0000000000 10.0000000000 
Cr 3.9166712000 2.3097995000 10.0000000000 
Os 2.6394208000 0.0000000000 10.0000000000 
Os 1.2772504000 2.3097995000 10.0000000000 
Cr 5.2788416000 3.1131195000 12.1656063000 
Cr 1.3621704000 0.8033200000 12.1656063000 
Os 2.6394208000 3.1131195000 12.1656063000 
Os 4.0015912000 0.8033200000 12.1656063000 
Cr 2.6764073000 1.5783740000 14.2073047000 
Cr 6.5927453000 3.8879714000 14.2073359000 
Os 5.3327078000 1.5888993000 14.2625128000 
Os 3.9710402000 3.8978509000 14.2625128000 

