&CONTROL
   calculation      = 'scf'
   tstress          = .true.
   tprnfor          = .true.
   outdir           = './Mo2Hg2'
   prefix           = 'Mo2Hg2_beef'
   pseudo_dir       = '../pseudo'
   tefield          = .true.
   dipfield         = .true.
/
&SYSTEM
   celldm(1)        = 1.889726
   ecutwfc          = 55.123963237125
   ecutrho          = 551.23963237125
   nosym            = .true.
   occupations      = 'smearing'
   degauss          = 0.01D0
   smearing         = 'fd'
   input_dft        = 'BEEF-vdW'
   edir             = 3
   emaxpos          = 0.95
   eopreg           = 0.05
   eamp             = 0.01
   ntyp             = 2
   nat              = 12
   ibrav            = 0
/
&ELECTRONS
   electron_maxstep = 500
   conv_thr         = 1e-05
   mixing_mode      = 'plain'
   mixing_beta      = 0.1
   mixing_ndim      = 10
/
&IONS
/
&CELL
/

ATOMIC_SPECIES
Mo 95.95 Mo.pbe-spn-rrkjus_psl.1.0.0.UPF
Hg 200.592 Hg.pbe-n-rrkjus_psl.1.0.0.UPF

K_POINTS automatic
12 12 1  0 0 0

CELL_PARAMETERS alat
5.68049000000000 0.00000000000000 0.00000000000000
-2.84024500000000 5.35561500000000 0.00000000000000
0.00000000000000 0.00000000000000 24.81586900000000

ATOMIC_POSITIONS alat
Mo 0.0000000000 0.0000000000 10.0000000000 
Mo 2.8402452000 0.0000000000 10.0000000000 
Hg 1.4201226000 2.6778073000 10.0000000000 
Hg -1.4201226000 2.6778073000 10.0000000000 
Mo 2.8402452000 1.5062684000 12.4079345000 
Mo -0.0000000000 1.5062684000 12.4079345000 
Hg -1.4201226000 4.1840756000 12.4079345000 
Hg 1.4201226000 4.1840756000 12.4079345000 
Mo -0.0000122000 2.5038240000 14.4771263000 
Mo 2.8402389000 2.5036577000 14.4770206000 
Hg 1.4196257000 5.2861001000 15.2920400000 
Hg -1.4196503000 5.2861035000 15.2920342000 

