&CONTROL
   calculation      = 'scf'
   tstress          = .true.
   tprnfor          = .true.
   outdir           = './Mo2Os2'
   prefix           = 'Mo2Os2_beef'
   pseudo_dir       = '../pseudo'
   tefield          = .true.
   dipfield         = .true.
/
&SYSTEM
   celldm(1)        = 1.889726
   ecutwfc          = 55.123963237125
   ecutrho          = 551.23963237125
   nosym            = .true.
   occupations      = 'smearing'
   degauss          = 0.01D0
   smearing         = 'fd'
   input_dft        = 'BEEF-vdW'
   edir             = 3
   emaxpos          = 0.95
   eopreg           = 0.05
   eamp             = 0.01
   ntyp             = 2
   nat              = 12
   ibrav            = 0
/
&ELECTRONS
   electron_maxstep = 500
   conv_thr         = 1e-05
   mixing_mode      = 'plain'
   mixing_beta      = 0.1
   mixing_ndim      = 10
/
&IONS
/
&CELL
/

ATOMIC_SPECIES
Mo 95.95 Mo.pbe-spn-rrkjus_psl.1.0.0.UPF
Os 190.23 Os.pbe-spn-rrkjus_psl.1.0.0.UPF

K_POINTS automatic
12 12 1  0 0 0

CELL_PARAMETERS alat
5.54061800000000 0.00000000000000 0.00000000000000
2.74421000000000 4.81329000000000 0.00000000000000
0.00000000000000 0.00000000000000 24.53081400000000

ATOMIC_POSITIONS alat
Mo 0.0000000000 0.0000000000 10.0000000000 
Mo 4.1424137000 2.4066449000 10.0000000000 
Os 2.7703089000 0.0000000000 10.0000000000 
Os 1.3721048000 2.4066449000 10.0000000000 
Mo 5.5406177000 3.2189686000 12.2654072000 
Mo 1.3982041000 0.8123237000 12.2654072000 
Os 2.7703089000 3.2189686000 12.2654072000 
Os 4.1685129000 0.8123237000 12.2654072000 
Mo 2.8015642000 1.6276440000 14.4220493000 
Mo 6.9439754000 4.0342871000 14.4220493000 
Os 5.5559597000 1.6183957000 14.4311857000 
Os 4.1577525000 4.0250423000 14.4311851000 

