&CONTROL
   calculation      = 'scf'
   tstress          = .true.
   tprnfor          = .true.
   outdir           = './Mo2Y2'
   prefix           = 'Mo2Y2_beef'
   pseudo_dir       = '../pseudo'
   tefield          = .true.
   dipfield         = .true.
/
&SYSTEM
   celldm(1)        = 1.889726
   ecutwfc          = 55.123963237125
   ecutrho          = 551.23963237125
   nosym            = .true.
   occupations      = 'smearing'
   degauss          = 0.01D0
   smearing         = 'fd'
   input_dft        = 'BEEF-vdW'
   edir             = 3
   emaxpos          = 0.95
   eopreg           = 0.05
   eamp             = 0.01
   ntyp             = 2
   nat              = 12
   ibrav            = 0
/
&ELECTRONS
   electron_maxstep = 500
   conv_thr         = 1e-05
   mixing_mode      = 'plain'
   mixing_beta      = 0.1
   mixing_ndim      = 10
/
&IONS
/
&CELL
/

ATOMIC_SPECIES
Mo 95.95 Mo.pbe-spn-rrkjus_psl.1.0.0.UPF
Y 88.90584 Y.pbe-spn-rrkjus_psl.1.0.0.UPF

K_POINTS automatic
12 12 1  0 0 0

CELL_PARAMETERS alat
5.90680000000000 0.00000000000000 0.00000000000000
-2.95340000000000 5.75235200000000 0.00000000000000
0.00000000000000 0.00000000000000 25.06883000000000

ATOMIC_POSITIONS alat
Mo 0.0000000000 0.0000000000 10.0000000000 
Mo 2.9534002000 0.0000000000 10.0000000000 
Y 1.4767001000 2.8761758000 10.0000000000 
Y -1.4767001000 2.8761758000 10.0000000000 
Mo 2.9534002000 1.5163490000 12.5344148000 
Mo 0.0000000000 1.5163490000 12.5344148000 
Y -1.4767001000 4.3925248000 12.5344148000 
Y 1.4767001000 4.3925248000 12.5344148000 
Mo 0.0002742000 2.7706065000 14.6248909000 
Mo 2.9537385000 2.7706156000 14.6248763000 
Y 4.4300304000 0.2173528000 15.2847772000 
Y 1.4766182000 0.2173883000 15.2847188000 

