&CONTROL
   calculation      = 'scf'
   tstress          = .true.
   tprnfor          = .true.
   outdir           = './Nb2Au2'
   prefix           = 'Nb2Au2_beef'
   pseudo_dir       = '../pseudo'
   tefield          = .true.
   dipfield         = .true.
/
&SYSTEM
   celldm(1)        = 1.889726
   ecutwfc          = 55.123963237125
   ecutrho          = 551.23963237125
   nosym            = .true.
   occupations      = 'smearing'
   degauss          = 0.01D0
   smearing         = 'fd'
   input_dft        = 'BEEF-vdW'
   edir             = 3
   emaxpos          = 0.95
   eopreg           = 0.05
   eamp             = 0.01
   ntyp             = 2
   nat              = 12
   ibrav            = 0
/
&ELECTRONS
   electron_maxstep = 500
   conv_thr         = 1e-05
   mixing_mode      = 'plain'
   mixing_beta      = 0.1
   mixing_ndim      = 10
/
&IONS
/
&CELL
/

ATOMIC_SPECIES
Nb 92.90637 Nb.pbe-spn-rrkjus_psl.1.0.0.UPF
Au 196.966569 Au.pbe-n-rrkjus_psl.1.0.0.UPF

K_POINTS automatic
12 12 1  0 0 0

CELL_PARAMETERS alat
5.81745000000000 0.00000000000000 0.00000000000000
-2.90872500000000 5.13069100000000 0.00000000000000
0.00000000000000 0.00000000000000 24.79223100000000

ATOMIC_POSITIONS alat
Nb 0.0000000000 0.0000000000 10.0000000000 
Nb 2.9087249000 0.0000000000 10.0000000000 
Au 1.4543624000 2.5653456000 10.0000000000 
Au -1.4543624000 2.5653456000 10.0000000000 
Nb 2.9087249000 1.6490333000 12.3961155000 
Nb -0.0000000000 1.6490333000 12.3961155000 
Au -1.4543624000 4.2143788000 12.3961155000 
Au 1.4543624000 4.2143788000 12.3961155000 
Nb 0.0000002000 3.2679791000 14.6534228000 
Nb 2.9087241000 3.2679780000 14.6534221000 
Au 4.3630893000 0.7586620000 14.8364399000 
Au 1.4543611000 0.7586596000 14.8364367000 

