&CONTROL
   calculation      = 'scf'
   tstress          = .true.
   tprnfor          = .true.
   outdir           = './Nb2Hg2'
   prefix           = 'Nb2Hg2_beef'
   pseudo_dir       = '../pseudo'
   tefield          = .true.
   dipfield         = .true.
/
&SYSTEM
   celldm(1)        = 1.889726
   ecutwfc          = 55.123963237125
   ecutrho          = 551.23963237125
   nosym            = .true.
   occupations      = 'smearing'
   degauss          = 0.01D0
   smearing         = 'fd'
   input_dft        = 'BEEF-vdW'
   edir             = 3
   emaxpos          = 0.95
   eopreg           = 0.05
   eamp             = 0.01
   ntyp             = 2
   nat              = 12
   ibrav            = 0
/
&ELECTRONS
   electron_maxstep = 500
   conv_thr         = 1e-05
   mixing_mode      = 'plain'
   mixing_beta      = 0.1
   mixing_ndim      = 10
/
&IONS
/
&CELL
/

ATOMIC_SPECIES
Nb 92.90637 Nb.pbe-spn-rrkjus_psl.1.0.0.UPF
Hg 200.592 Hg.pbe-n-rrkjus_psl.1.0.0.UPF

K_POINTS automatic
12 12 1  0 0 0

CELL_PARAMETERS alat
5.89346700000000 0.00000000000000 0.00000000000000
-2.94673300000000 5.36846800000000 0.00000000000000
0.00000000000000 0.00000000000000 24.92629200000000

ATOMIC_POSITIONS alat
Nb 0.0000000000 0.0000000000 10.0000000000 
Nb 2.9467334000 0.0000000000 10.0000000000 
Hg 1.4733667000 2.6842338000 10.0000000000 
Hg -1.4733667000 2.6842338000 10.0000000000 
Nb 2.9467334000 1.6174518000 12.4631458000 
Nb 0.0000000000 1.6174518000 12.4631458000 
Hg -1.4733667000 4.3016856000 12.4631458000 
Hg 1.4733667000 4.3016856000 12.4631458000 
Nb 0.0000050000 2.9590220000 14.7469843000 
Nb 2.9467294000 2.9589377000 14.7470372000 
Hg 4.4200489000 0.3350321000 15.2703087000 
Hg 1.4734217000 0.3350369000 15.2703114000 

