&CONTROL
   calculation      = 'scf'
   tstress          = .true.
   tprnfor          = .true.
   outdir           = './Rh2Hg2'
   prefix           = 'Rh2Hg2_beef'
   pseudo_dir       = '../pseudo'
   tefield          = .true.
   dipfield         = .true.
/
&SYSTEM
   celldm(1)        = 1.889726
   ecutwfc          = 55.123963237125
   ecutrho          = 551.23963237125
   nosym            = .true.
   occupations      = 'smearing'
   degauss          = 0.01D0
   smearing         = 'fd'
   input_dft        = 'BEEF-vdW'
   edir             = 3
   emaxpos          = 0.95
   eopreg           = 0.05
   eamp             = 0.01
   ntyp             = 2
   nat              = 12
   ibrav            = 0
/
&ELECTRONS
   electron_maxstep = 500
   conv_thr         = 1e-05
   mixing_mode      = 'plain'
   mixing_beta      = 0.1
   mixing_ndim      = 10
/
&IONS
/
&CELL
/

ATOMIC_SPECIES
Rh 102.9055 Rh.pbe-spn-rrkjus_psl.1.0.0.UPF
Hg 200.592 Hg.pbe-n-rrkjus_psl.1.0.0.UPF

K_POINTS automatic
12 12 1  0 0 0

CELL_PARAMETERS alat
5.70193700000000 0.00000000000000 0.00000000000000
1.90385800000000 5.37470100000000 0.00000000000000
0.00000000000000 0.00000000000000 24.65659200000000

ATOMIC_POSITIONS alat
Rh 0.0000000000 0.0000000000 10.0000000000 
Rh 3.8028978000 2.6873505000 10.0000000000 
Hg 2.8509686000 0.0000000000 10.0000000000 
Hg 0.9519292000 2.6873505000 10.0000000000 
Rh 5.7019371000 4.0293229000 12.3282960000 
Rh 1.8990393000 1.3419725000 12.3282960000 
Hg 2.8509686000 4.0293229000 12.3282960000 
Hg 4.7500079000 1.3419725000 12.3282960000 
Rh 3.7980857000 2.6839471000 14.5339697000 
Rh 7.6010228000 5.3713245000 14.5340294000 
Hg 6.6490652000 2.6841092000 14.8589438000 
Hg 4.7501766000 5.3712582000 14.8589415000 

