&CONTROL
   calculation      = 'scf'
   tstress          = .true.
   tprnfor          = .true.
   outdir           = './Rh2Y2'
   prefix           = 'Rh2Y2_beef'
   pseudo_dir       = '../pseudo'
   tefield          = .true.
   dipfield         = .true.
/
&SYSTEM
   celldm(1)        = 1.889726
   ecutwfc          = 55.123963237125
   ecutrho          = 551.23963237125
   nosym            = .true.
   occupations      = 'smearing'
   degauss          = 0.01D0
   smearing         = 'fd'
   input_dft        = 'BEEF-vdW'
   edir             = 3
   emaxpos          = 0.95
   eopreg           = 0.05
   eamp             = 0.01
   ntyp             = 2
   nat              = 12
   ibrav            = 0
/
&ELECTRONS
   electron_maxstep = 500
   conv_thr         = 1e-05
   mixing_mode      = 'plain'
   mixing_beta      = 0.1
   mixing_ndim      = 10
/
&IONS
/
&CELL
/

ATOMIC_SPECIES
Rh 102.9055 Rh.pbe-spn-rrkjus_psl.1.0.0.UPF
Y 88.90584 Y.pbe-spn-rrkjus_psl.1.0.0.UPF

K_POINTS automatic
12 12 1  0 0 0

CELL_PARAMETERS alat
5.99916800000000 0.00000000000000 0.00000000000000
1.93747700000000 5.67769300000000 0.00000000000000
0.00000000000000 0.00000000000000 24.87785300000000

ATOMIC_POSITIONS alat
Rh 0.0000000000 0.0000000000 10.0000000000 
Rh 3.9683226000 2.8388465000 10.0000000000 
Y 2.9995839000 0.0000000000 10.0000000000 
Y 0.9687387000 2.8388465000 10.0000000000 
Rh 5.9991679000 4.2916663000 12.4389267000 
Rh 2.0308453000 1.4528199000 12.4389267000 
Y 2.9995839000 4.2916663000 12.4389267000 
Y 5.0304292000 1.4528199000 12.4389267000 
Rh 4.0420635000 2.8916143000 14.6815754000 
Rh 0.0737526000 0.0527522000 14.6815795000 
Y 1.0270553000 2.8805581000 14.9043385000 
Y 3.0579217000 0.0417354000 14.9043431000 

