&CONTROL
   calculation      = 'scf'
   tstress          = .true.
   tprnfor          = .true.
   outdir           = './Sc2Nb2'
   prefix           = 'Sc2Nb2_beef'
   pseudo_dir       = '../pseudo'
   tefield          = .true.
   dipfield         = .true.
/
&SYSTEM
   celldm(1)        = 1.889726
   ecutwfc          = 55.123963237125
   ecutrho          = 551.23963237125
   nosym            = .true.
   occupations      = 'smearing'
   degauss          = 0.01D0
   smearing         = 'fd'
   input_dft        = 'BEEF-vdW'
   edir             = 3
   emaxpos          = 0.95
   eopreg           = 0.05
   eamp             = 0.01
   ntyp             = 2
   nat              = 12
   ibrav            = 0
/
&ELECTRONS
   electron_maxstep = 500
   conv_thr         = 1e-05
   mixing_mode      = 'plain'
   mixing_beta      = 0.1
   mixing_ndim      = 10
/
&IONS
/
&CELL
/

ATOMIC_SPECIES
Sc 44.955908 Sc.pbe-spn-rrkjus_psl.1.0.0.UPF
Nb 92.90637 Nb.pbe-spn-rrkjus_psl.1.0.0.UPF

K_POINTS automatic
12 12 1  0 0 0

CELL_PARAMETERS alat
5.81750300000000 0.00000000000000 0.00000000000000
-2.90875200000000 5.61450700000000 0.00000000000000
0.00000000000000 0.00000000000000 24.97590500000000

ATOMIC_POSITIONS alat
Sc 0.0000000000 0.0000000000 10.0000000000 
Sc 2.9087516000 0.0000000000 10.0000000000 
Nb 1.4543758000 2.8072535000 10.0000000000 
Nb -1.4543758000 2.8072535000 10.0000000000 
Sc 2.9087516000 1.5069598000 12.4879527000 
Sc 0.0000000000 1.5069598000 12.4879527000 
Nb -1.4543758000 4.3142133000 12.4879527000 
Nb 1.4543758000 4.3142133000 12.4879527000 
Sc -0.0000416000 3.0891361000 15.0438628000 
Sc 2.9087155000 3.0891612000 15.0438954000 
Nb 4.3631058000 0.1347033000 14.7335204000 
Nb 1.4543725000 0.1347024000 14.7335226000 

