&CONTROL
   calculation      = 'scf'
   tstress          = .true.
   tprnfor          = .true.
   outdir           = './Y2Hg2'
   prefix           = 'Y2Hg2_beef'
   pseudo_dir       = '../pseudo'
   tefield          = .true.
   dipfield         = .true.
/
&SYSTEM
   celldm(1)        = 1.889726
   ecutwfc          = 55.123963237125
   ecutrho          = 551.23963237125
   nosym            = .true.
   occupations      = 'smearing'
   degauss          = 0.01D0
   smearing         = 'fd'
   input_dft        = 'BEEF-vdW'
   edir             = 3
   emaxpos          = 0.95
   eopreg           = 0.05
   eamp             = 0.01
   ntyp             = 2
   nat              = 12
   ibrav            = 0
/
&ELECTRONS
   electron_maxstep = 500
   conv_thr         = 1e-05
   mixing_mode      = 'plain'
   mixing_beta      = 0.1
   mixing_ndim      = 10
/
&IONS
/
&CELL
/

ATOMIC_SPECIES
Y 88.90584 Y.pbe-spn-rrkjus_psl.1.0.0.UPF
Hg 200.592 Hg.pbe-n-rrkjus_psl.1.0.0.UPF

K_POINTS automatic
12 12 1  0 0 0

CELL_PARAMETERS alat
6.46885100000000 0.00000000000000 0.00000000000000
2.27206200000000 6.05671300000000 0.00000000000000
0.00000000000000 0.00000000000000 25.31292700000000

ATOMIC_POSITIONS alat
Y 0.0000000000 0.0000000000 10.0000000000 
Y 4.3704565000 3.0283565000 10.0000000000 
Hg 3.2344256000 0.0000000000 10.0000000000 
Hg 1.1360309000 3.0283565000 10.0000000000 
Y 6.4688513000 4.4823665000 12.6564634000 
Y 2.0983948000 1.4540100000 12.6564634000 
Hg 3.2344256000 4.4823665000 12.6564634000 
Hg 5.3328204000 1.4540100000 12.6564634000 
Y 4.2744125000 2.9618481000 15.2806299000 
Y 8.6446930000 5.9900234000 15.2807040000 
Hg 7.5118029000 2.9636319000 15.3579875000 
Hg 5.4132635000 5.9923946000 15.3580026000 

