&CONTROL
   calculation      = 'scf'
   tstress          = .true.
   tprnfor          = .true.
   outdir           = './Zr2Os2'
   prefix           = 'Zr2Os2_beef'
   pseudo_dir       = '../pseudo'
   tefield          = .true.
   dipfield         = .true.
/
&SYSTEM
   celldm(1)        = 1.889726
   ecutwfc          = 55.123963237125
   ecutrho          = 551.23963237125
   nosym            = .true.
   occupations      = 'smearing'
   degauss          = 0.01D0
   smearing         = 'fd'
   input_dft        = 'BEEF-vdW'
   edir             = 3
   emaxpos          = 0.95
   eopreg           = 0.05
   eamp             = 0.01
   ntyp             = 2
   nat              = 12
   ibrav            = 0
/
&ELECTRONS
   electron_maxstep = 500
   conv_thr         = 1e-05
   mixing_mode      = 'plain'
   mixing_beta      = 0.1
   mixing_ndim      = 10
/
&IONS
/
&CELL
/

ATOMIC_SPECIES
Zr 91.224 Zr.pbe-spn-rrkjus_psl.1.0.0.UPF
Os 190.23 Os.pbe-spn-rrkjus_psl.1.0.0.UPF

K_POINTS automatic
12 12 1  0 0 0

CELL_PARAMETERS alat
5.69223100000000 0.00000000000000 0.00000000000000
1.90540100000000 5.36385500000000 0.00000000000000
0.00000000000000 0.00000000000000 24.65011000000000

ATOMIC_POSITIONS alat
Zr 0.0000000000 0.0000000000 10.0000000000 
Zr 3.7988161000 2.6819277000 10.0000000000 
Os 2.8461157000 0.0000000000 10.0000000000 
Os 0.9527005000 2.6819277000 10.0000000000 
Zr 5.6922313000 4.0186606000 12.3250551000 
Zr 1.8934152000 1.3367329000 12.3250551000 
Os 2.8461157000 4.0186606000 12.3250551000 
Os 4.7395308000 1.3367329000 12.3250551000 
Zr 3.7907721000 2.6762494000 14.6939778000 
Zr 7.5895874000 5.3581769000 14.6939766000 
Os 6.6339563000 2.6741789000 14.4884559000 
Os 4.7405408000 5.3561056000 14.4884560000 

