&PROJWFC
prefix = 'Ag2Cd2_beef',
outdir = './Ag2Cd2',
degauss = 0.001,
DeltaE = 0.001,
filpdos = 'Ag2Cd2.pdos.out',
filproj = 'Ag2Cd2.proj.out',
/
