&PROJWFC
prefix = 'Ag2Hg2_beef',
outdir = './Ag2Hg2',
degauss = 0.001,
DeltaE = 0.001,
filpdos = 'Ag2Hg2.pdos.out',
filproj = 'Ag2Hg2.proj.out',
/
