&INPUTPP
prefix = 'Ag2Os2_beef',
outdir = './Ag2Os2',
filplot = 'Ag2Os2-wf.dat',
plot_num = 11
/
