&PROJWFC
prefix = 'Ag2Os2_beef',
outdir = './Ag2Os2',
degauss = 0.001,
DeltaE = 0.001,
filpdos = 'Ag2Os2.pdos.out',
filproj = 'Ag2Os2.proj.out',
/
