&PROJWFC
prefix = 'Ag2Y2_beef',
outdir = './Ag2Y2',
degauss = 0.001,
DeltaE = 0.001,
filpdos = 'Ag2Y2.pdos.out',
filproj = 'Ag2Y2.proj.out',
/
