&INPUTPP
prefix = 'Ag2Y2_beef',
outdir = './Ag2Y2',
filplot = 'Ag2Y2-wf.dat',
plot_num = 11
/
