&PROJWFC
prefix = 'Cr2Ag2_beef',
outdir = './Cr2Ag2',
degauss = 0.001,
DeltaE = 0.001,
filpdos = 'Cr2Ag2.pdos.out',
filproj = 'Cr2Ag2.proj.out',
/
