&INPUTPP
prefix = 'Cr2Cu2_beef',
outdir = './Cr2Cu2',
filplot = 'Cr2Cu2-wf.dat',
plot_num = 11
/
