&INPUTPP
prefix = 'Cr2Ru2_beef',
outdir = './Cr2Ru2',
filplot = 'Cr2Ru2-wf.dat',
plot_num = 11
/
