&INPUTPP
prefix = 'Cu2Ag2_beef',
outdir = './Cu2Ag2',
filplot = 'Cu2Ag2-wf.dat',
plot_num = 11
/
