&PROJWFC
prefix = 'Cu2Au2_beef',
outdir = './Cu2Au2',
degauss = 0.001,
DeltaE = 0.001,
filpdos = 'Cu2Au2.pdos.out',
filproj = 'Cu2Au2.proj.out',
/
