&PROJWFC
prefix = 'Cu2Ag2_beef',
outdir = './Cu2Ag2',
degauss = 0.001,
DeltaE = 0.001,
filpdos = 'Cu2Ag2.pdos.out',
filproj = 'Cu2Ag2.proj.out',
/
