&PROJWFC
prefix = 'Cu2Cd2_beef',
outdir = './Cu2Cd2',
degauss = 0.001,
DeltaE = 0.001,
filpdos = 'Cu2Cd2.pdos.out',
filproj = 'Cu2Cd2.proj.out',
/
