&DOS
prefix = 'Cu2Cd2_beef',
outdir = './Cu2Cd2',
degauss = 0.001,
DeltaE = 0.001,
fildos = 'Cu2Cd2.dos.out',
/
