&INPUTPP
prefix = 'Cu2Hg2_beef',
outdir = './Cu2Hg2',
filplot = 'Cu2Hg2-wf.dat',
plot_num = 11
/
