&DOS
prefix = 'Cu2Mo2_beef',
outdir = './Cu2Mo2',
degauss = 0.001,
DeltaE = 0.001,
fildos = 'Cu2Mo2.dos.out',
/
