&PROJWFC
prefix = 'Cu2Mo2_beef',
outdir = './Cu2Mo2',
degauss = 0.001,
DeltaE = 0.001,
filpdos = 'Cu2Mo2.pdos.out',
filproj = 'Cu2Mo2.proj.out',
/
