&PROJWFC
prefix = 'Cu2Nb2_beef',
outdir = './Cu2Nb2',
degauss = 0.001,
DeltaE = 0.001,
filpdos = 'Cu2Nb2.pdos.out',
filproj = 'Cu2Nb2.proj.out',
/
