&INPUTPP
prefix = 'Cu2Nb2_beef',
outdir = './Cu2Nb2',
filplot = 'Cu2Nb2-wf.dat',
plot_num = 11
/
