&INPUTPP
prefix = 'Cu2Os2_beef',
outdir = './Cu2Os2',
filplot = 'Cu2Os2-wf.dat',
plot_num = 11
/
