&PROJWFC
prefix = 'Cu2Rh2_beef',
outdir = './Cu2Rh2',
degauss = 0.001,
DeltaE = 0.001,
filpdos = 'Cu2Rh2.pdos.out',
filproj = 'Cu2Rh2.proj.out',
/
