&PROJWFC
prefix = 'Cu2Ru2_beef',
outdir = './Cu2Ru2',
degauss = 0.001,
DeltaE = 0.001,
filpdos = 'Cu2Ru2.pdos.out',
filproj = 'Cu2Ru2.proj.out',
/
