&INPUTPP
prefix = 'Cu2Ru2_beef',
outdir = './Cu2Ru2',
filplot = 'Cu2Ru2-wf.dat',
plot_num = 11
/
