&INPUTPP
prefix = 'Cu2Rh2_beef',
outdir = './Cu2Rh2',
filplot = 'Cu2Rh2-wf.dat',
plot_num = 11
/
