&DOS
prefix = 'Cu2Rh2_beef',
outdir = './Cu2Rh2',
degauss = 0.001,
DeltaE = 0.001,
fildos = 'Cu2Rh2.dos.out',
/
