&PROJWFC
prefix = 'Cu2Zr2_beef',
outdir = './Cu2Zr2',
degauss = 0.001,
DeltaE = 0.001,
filpdos = 'Cu2Zr2.pdos.out',
filproj = 'Cu2Zr2.proj.out',
/
