&INPUTPP
prefix = 'Cu2Zr2_beef',
outdir = './Cu2Zr2',
filplot = 'Cu2Zr2-wf.dat',
plot_num = 11
/
