&DOS
prefix = 'Mo2Ag2_beef',
outdir = './Mo2Ag2',
degauss = 0.001,
DeltaE = 0.001,
fildos = 'Mo2Ag2.dos.out',
/
