&INPUTPP
prefix = 'Mo2Ag2_beef',
outdir = './Mo2Ag2',
filplot = 'Mo2Ag2-wf.dat',
plot_num = 11
/
