&PROJWFC
prefix = 'Mo2Ag2_beef',
outdir = './Mo2Ag2',
degauss = 0.001,
DeltaE = 0.001,
filpdos = 'Mo2Ag2.pdos.out',
filproj = 'Mo2Ag2.proj.out',
/
