&INPUTPP
prefix = 'Mo2Ru2_beef',
outdir = './Mo2Ru2',
filplot = 'Mo2Ru2-wf.dat',
plot_num = 11
/
