&DOS
prefix = 'Nb2Ag2_beef',
outdir = './Nb2Ag2',
degauss = 0.001,
DeltaE = 0.001,
fildos = 'Nb2Ag2.dos.out',
/
