&PROJWFC
prefix = 'Nb2Ru2_beef',
outdir = './Nb2Ru2',
degauss = 0.001,
DeltaE = 0.001,
filpdos = 'Nb2Ru2.pdos.out',
filproj = 'Nb2Ru2.proj.out',
/
