&INPUTPP
prefix = 'Rh2Ag2_beef',
outdir = './Rh2Ag2',
filplot = 'Rh2Ag2-wf.dat',
plot_num = 11
/
