&PROJWFC
prefix = 'Rh2Ag2_beef',
outdir = './Rh2Ag2',
degauss = 0.001,
DeltaE = 0.001,
filpdos = 'Rh2Ag2.pdos.out',
filproj = 'Rh2Ag2.proj.out',
/
