&INPUTPP
prefix = 'Ru2Au2_beef',
outdir = './Ru2Au2',
filplot = 'Ru2Au2-wf.dat',
plot_num = 11
/
