&DOS
prefix = 'Ru2Au2_beef',
outdir = './Ru2Au2',
degauss = 0.001,
DeltaE = 0.001,
fildos = 'Ru2Au2.dos.out',
/
