&PROJWFC
prefix = 'Ru2Au2_beef',
outdir = './Ru2Au2',
degauss = 0.001,
DeltaE = 0.001,
filpdos = 'Ru2Au2.pdos.out',
filproj = 'Ru2Au2.proj.out',
/
