&INPUTPP
prefix = 'Ru2Ag2_beef',
outdir = './Ru2Ag2',
filplot = 'Ru2Ag2-wf.dat',
plot_num = 11
/
