&PROJWFC
prefix = 'Ru2Cd2_beef',
outdir = './Ru2Cd2',
degauss = 0.001,
DeltaE = 0.001,
filpdos = 'Ru2Cd2.pdos.out',
filproj = 'Ru2Cd2.proj.out',
/
