&INPUTPP
prefix = 'Ru2Hg2_beef',
outdir = './Ru2Hg2',
filplot = 'Ru2Hg2-wf.dat',
plot_num = 11
/
