&INPUTPP
prefix = 'Ru2Os2_beef',
outdir = './Ru2Os2',
filplot = 'Ru2Os2-wf.dat',
plot_num = 11
/
