&DOS
prefix = 'Ru2Rh2_beef',
outdir = './Ru2Rh2',
degauss = 0.001,
DeltaE = 0.001,
fildos = 'Ru2Rh2.dos.out',
/
