&DOS
prefix = 'Ru2Y2_beef',
outdir = './Ru2Y2',
degauss = 0.001,
DeltaE = 0.001,
fildos = 'Ru2Y2.dos.out',
/
