&INPUTPP
prefix = 'Ru2Y2_beef',
outdir = './Ru2Y2',
filplot = 'Ru2Y2-wf.dat',
plot_num = 11
/
