&PROJWFC
prefix = 'Sc2Ag2_beef',
outdir = './Sc2Ag2',
degauss = 0.001,
DeltaE = 0.001,
filpdos = 'Sc2Ag2.pdos.out',
filproj = 'Sc2Ag2.proj.out',
/
