&DOS
prefix = 'Sc2Ag2_beef',
outdir = './Sc2Ag2',
degauss = 0.001,
DeltaE = 0.001,
fildos = 'Sc2Ag2.dos.out',
/
