&DOS
prefix = 'Sc2Cu2_beef',
outdir = './Sc2Cu2',
degauss = 0.001,
DeltaE = 0.001,
fildos = 'Sc2Cu2.dos.out',
/
