&INPUTPP
prefix = 'Sc2Ru2_beef',
outdir = './Sc2Ru2',
filplot = 'Sc2Ru2-wf.dat',
plot_num = 11
/
