&PROJWFC
prefix = 'Sc2Ru2_beef',
outdir = './Sc2Ru2',
degauss = 0.001,
DeltaE = 0.001,
filpdos = 'Sc2Ru2.pdos.out',
filproj = 'Sc2Ru2.proj.out',
/
