&INPUTPP
prefix = 'Zr2Ag2_beef',
outdir = './Zr2Ag2',
filplot = 'Zr2Ag2-wf.dat',
plot_num = 11
/
