&DOS
prefix = 'Zr2Ag2_beef',
outdir = './Zr2Ag2',
degauss = 0.001,
DeltaE = 0.001,
fildos = 'Zr2Ag2.dos.out',
/
