&PROJWFC
prefix = 'Zr2Ag2_beef',
outdir = './Zr2Ag2',
degauss = 0.001,
DeltaE = 0.001,
filpdos = 'Zr2Ag2.pdos.out',
filproj = 'Zr2Ag2.proj.out',
/
