&PROJWFC
prefix = 'Zr2Ru2_beef',
outdir = './Zr2Ru2',
degauss = 0.001,
DeltaE = 0.001,
filpdos = 'Zr2Ru2.pdos.out',
filproj = 'Zr2Ru2.proj.out',
/
