&DOS
prefix = 'Zr2Ru2_beef',
outdir = './Zr2Ru2',
degauss = 0.001,
DeltaE = 0.001,
fildos = 'Zr2Ru2.dos.out',
/
