&DOS
prefix = 'Fe2Y2_beef',
outdir = './Fe2Y2',
degauss = 0.001,
DeltaE = 0.001,
fildos = 'Fe2Y2.dos.out',
/
