&PROJWFC
prefix = 'Fe2Y2_beef',
outdir = './Fe2Y2',
degauss = 0.001,
DeltaE = 0.001,
filpdos = 'Fe2Y2.pdos.out',
filproj = 'Fe2Y2.proj.out',
/
