&INPUTPP
prefix = 'Fe2Y2_beef',
outdir = './Fe2Y2',
filplot = 'Fe2Y2-wf.dat',
plot_num = 11
/
