&DOS
prefix = 'Fe2Zr2_beef',
outdir = './Fe2Zr2',
degauss = 0.001,
DeltaE = 0.001,
fildos = 'Fe2Zr2.dos.out',
/
