&INPUTPP
prefix = 'Fe2Zr2_beef',
outdir = './Fe2Zr2',
filplot = 'Fe2Zr2-wf.dat',
plot_num = 11
/
