&PROJWFC
prefix = 'Fe2Zr2_beef',
outdir = './Fe2Zr2',
degauss = 0.001,
DeltaE = 0.001,
filpdos = 'Fe2Zr2.pdos.out',
filproj = 'Fe2Zr2.proj.out',
/
