&INPUTPP
prefix = 'Co2Mn2_beef',
outdir = './Co2Mn2',
filplot = 'Co2Mn2-wf.dat',
plot_num = 11
/
