&DOS
prefix = 'Co2Mn2_beef',
outdir = './Co2Mn2',
degauss = 0.001,
DeltaE = 0.001,
fildos = 'Co2Mn2.dos.out',
/
