&PROJWFC
prefix = 'Co2Mn2_beef',
outdir = './Co2Mn2',
degauss = 0.001,
DeltaE = 0.001,
filpdos = 'Co2Mn2.pdos.out',
filproj = 'Co2Mn2.proj.out',
/
