&INPUTPP
prefix = 'Cr2Mn2_beef',
outdir = './Cr2Mn2',
filplot = 'Cr2Mn2-wf.dat',
plot_num = 11
/
