&DOS
prefix = 'Cr2Mn2_beef',
outdir = './Cr2Mn2',
degauss = 0.001,
DeltaE = 0.001,
fildos = 'Cr2Mn2.dos.out',
/
