&PROJWFC
prefix = 'Cr2Mn2_beef',
outdir = './Cr2Mn2',
degauss = 0.001,
DeltaE = 0.001,
filpdos = 'Cr2Mn2.pdos.out',
filproj = 'Cr2Mn2.proj.out',
/
