&PROJWFC
prefix = 'Mn2Au2_beef',
outdir = './Mn2Au2',
degauss = 0.001,
DeltaE = 0.001,
filpdos = 'Mn2Au2.pdos.out',
filproj = 'Mn2Au2.proj.out',
/
