&DOS
prefix = 'Mn2Ag2_beef',
outdir = './Mn2Ag2',
degauss = 0.001,
DeltaE = 0.001,
fildos = 'Mn2Ag2.dos.out',
/
