&DOS
prefix = 'Mn2Au2_beef',
outdir = './Mn2Au2',
degauss = 0.001,
DeltaE = 0.001,
fildos = 'Mn2Au2.dos.out',
/
