&INPUTPP
prefix = 'Mn2Au2_beef',
outdir = './Mn2Au2',
filplot = 'Mn2Au2-wf.dat',
plot_num = 11
/
