&INPUTPP
prefix = 'Mn2Ag2_beef',
outdir = './Mn2Ag2',
filplot = 'Mn2Ag2-wf.dat',
plot_num = 11
/
