&PROJWFC
prefix = 'Mn2Ag2_beef',
outdir = './Mn2Ag2',
degauss = 0.001,
DeltaE = 0.001,
filpdos = 'Mn2Ag2.pdos.out',
filproj = 'Mn2Ag2.proj.out',
/
