&INPUTPP
prefix = 'Mn2Cd2_beef',
outdir = './Mn2Cd2',
filplot = 'Mn2Cd2-wf.dat',
plot_num = 11
/
