&PROJWFC
prefix = 'Mn2Cd2_beef',
outdir = './Mn2Cd2',
degauss = 0.001,
DeltaE = 0.001,
filpdos = 'Mn2Cd2.pdos.out',
filproj = 'Mn2Cd2.proj.out',
/
