&DOS
prefix = 'Mn2Cu2_beef',
outdir = './Mn2Cu2',
degauss = 0.001,
DeltaE = 0.001,
fildos = 'Mn2Cu2.dos.out',
/
