&INPUTPP
prefix = 'Mn2Cu2_beef',
outdir = './Mn2Cu2',
filplot = 'Mn2Cu2-wf.dat',
plot_num = 11
/
