&PROJWFC
prefix = 'Mn2Cu2_beef',
outdir = './Mn2Cu2',
degauss = 0.001,
DeltaE = 0.001,
filpdos = 'Mn2Cu2.pdos.out',
filproj = 'Mn2Cu2.proj.out',
/
