&DOS
prefix = 'Mn2Cd2_beef',
outdir = './Mn2Cd2',
degauss = 0.001,
DeltaE = 0.001,
fildos = 'Mn2Cd2.dos.out',
/
