&INPUTPP
prefix = 'Mn2Hg2_beef',
outdir = './Mn2Hg2',
filplot = 'Mn2Hg2-wf.dat',
plot_num = 11
/
