&PROJWFC
prefix = 'Mn2Hg2_beef',
outdir = './Mn2Hg2',
degauss = 0.001,
DeltaE = 0.001,
filpdos = 'Mn2Hg2.pdos.out',
filproj = 'Mn2Hg2.proj.out',
/
