&DOS
prefix = 'Mn2Hg2_beef',
outdir = './Mn2Hg2',
degauss = 0.001,
DeltaE = 0.001,
fildos = 'Mn2Hg2.dos.out',
/
