&PROJWFC
prefix = 'Mn2Ir2_beef',
outdir = './Mn2Ir2',
degauss = 0.001,
DeltaE = 0.001,
filpdos = 'Mn2Ir2.pdos.out',
filproj = 'Mn2Ir2.proj.out',
/
