&INPUTPP
prefix = 'Mn2Ir2_beef',
outdir = './Mn2Ir2',
filplot = 'Mn2Ir2-wf.dat',
plot_num = 11
/
