&DOS
prefix = 'Mn2Ir2_beef',
outdir = './Mn2Ir2',
degauss = 0.001,
DeltaE = 0.001,
fildos = 'Mn2Ir2.dos.out',
/
