&PROJWFC
prefix = 'Mn2La2_beef',
outdir = './Mn2La2',
degauss = 0.001,
DeltaE = 0.001,
filpdos = 'Mn2La2.pdos.out',
filproj = 'Mn2La2.proj.out',
/
