&INPUTPP
prefix = 'Mn2La2_beef',
outdir = './Mn2La2',
filplot = 'Mn2La2-wf.dat',
plot_num = 11
/
