&DOS
prefix = 'Mn2La2_beef',
outdir = './Mn2La2',
degauss = 0.001,
DeltaE = 0.001,
fildos = 'Mn2La2.dos.out',
/
