&DOS
prefix = 'Mn2Mo2_beef',
outdir = './Mn2Mo2',
degauss = 0.001,
DeltaE = 0.001,
fildos = 'Mn2Mo2.dos.out',
/
