&PROJWFC
prefix = 'Mn2Mo2_beef',
outdir = './Mn2Mo2',
degauss = 0.001,
DeltaE = 0.001,
filpdos = 'Mn2Mo2.pdos.out',
filproj = 'Mn2Mo2.proj.out',
/
