&INPUTPP
prefix = 'Mn2Mo2_beef',
outdir = './Mn2Mo2',
filplot = 'Mn2Mo2-wf.dat',
plot_num = 11
/
