&PROJWFC
prefix = 'Mn2Nb2_beef',
outdir = './Mn2Nb2',
degauss = 0.001,
DeltaE = 0.001,
filpdos = 'Mn2Nb2.pdos.out',
filproj = 'Mn2Nb2.proj.out',
/
