&INPUTPP
prefix = 'Mn2Nb2_beef',
outdir = './Mn2Nb2',
filplot = 'Mn2Nb2-wf.dat',
plot_num = 11
/
