&PROJWFC
prefix = 'Mn2Ni2_beef',
outdir = './Mn2Ni2',
degauss = 0.001,
DeltaE = 0.001,
filpdos = 'Mn2Ni2.pdos.out',
filproj = 'Mn2Ni2.proj.out',
/
