&DOS
prefix = 'Mn2Nb2_beef',
outdir = './Mn2Nb2',
degauss = 0.001,
DeltaE = 0.001,
fildos = 'Mn2Nb2.dos.out',
/
