&DOS
prefix = 'Mn2Ni2_beef',
outdir = './Mn2Ni2',
degauss = 0.001,
DeltaE = 0.001,
fildos = 'Mn2Ni2.dos.out',
/
