&INPUTPP
prefix = 'Mn2Ni2_beef',
outdir = './Mn2Ni2',
filplot = 'Mn2Ni2-wf.dat',
plot_num = 11
/
