&INPUTPP
prefix = 'Mn2Pt2_beef',
outdir = './Mn2Pt2',
filplot = 'Mn2Pt2-wf.dat',
plot_num = 11
/
