&DOS
prefix = 'Mn2Pt2_beef',
outdir = './Mn2Pt2',
degauss = 0.001,
DeltaE = 0.001,
fildos = 'Mn2Pt2.dos.out',
/
