&PROJWFC
prefix = 'Mn2Pd2_beef',
outdir = './Mn2Pd2',
degauss = 0.001,
DeltaE = 0.001,
filpdos = 'Mn2Pd2.pdos.out',
filproj = 'Mn2Pd2.proj.out',
/
