&PROJWFC
prefix = 'Mn2Pt2_beef',
outdir = './Mn2Pt2',
degauss = 0.001,
DeltaE = 0.001,
filpdos = 'Mn2Pt2.pdos.out',
filproj = 'Mn2Pt2.proj.out',
/
