&INPUTPP
prefix = 'Mn2Pd2_beef',
outdir = './Mn2Pd2',
filplot = 'Mn2Pd2-wf.dat',
plot_num = 11
/
