&DOS
prefix = 'Mn2Pd2_beef',
outdir = './Mn2Pd2',
degauss = 0.001,
DeltaE = 0.001,
fildos = 'Mn2Pd2.dos.out',
/
