&PROJWFC
prefix = 'Mn2Re2_beef',
outdir = './Mn2Re2',
degauss = 0.001,
DeltaE = 0.001,
filpdos = 'Mn2Re2.pdos.out',
filproj = 'Mn2Re2.proj.out',
/
