&INPUTPP
prefix = 'Mn2Rh2_beef',
outdir = './Mn2Rh2',
filplot = 'Mn2Rh2-wf.dat',
plot_num = 11
/
