&DOS
prefix = 'Mn2Rh2_beef',
outdir = './Mn2Rh2',
degauss = 0.001,
DeltaE = 0.001,
fildos = 'Mn2Rh2.dos.out',
/
