&INPUTPP
prefix = 'Mn2Ru2_beef',
outdir = './Mn2Ru2',
filplot = 'Mn2Ru2-wf.dat',
plot_num = 11
/
