&PROJWFC
prefix = 'Mn2Ru2_beef',
outdir = './Mn2Ru2',
degauss = 0.001,
DeltaE = 0.001,
filpdos = 'Mn2Ru2.pdos.out',
filproj = 'Mn2Ru2.proj.out',
/
