&PROJWFC
prefix = 'Mn2Rh2_beef',
outdir = './Mn2Rh2',
degauss = 0.001,
DeltaE = 0.001,
filpdos = 'Mn2Rh2.pdos.out',
filproj = 'Mn2Rh2.proj.out',
/
