&DOS
prefix = 'Mn2Ru2_beef',
outdir = './Mn2Ru2',
degauss = 0.001,
DeltaE = 0.001,
fildos = 'Mn2Ru2.dos.out',
/
