&DOS
prefix = 'Mn2Re2_beef',
outdir = './Mn2Re2',
degauss = 0.001,
DeltaE = 0.001,
fildos = 'Mn2Re2.dos.out',
/
