&INPUTPP
prefix = 'Mn2Re2_beef',
outdir = './Mn2Re2',
filplot = 'Mn2Re2-wf.dat',
plot_num = 11
/
