&INPUTPP
prefix = 'Mn2Ta2_beef',
outdir = './Mn2Ta2',
filplot = 'Mn2Ta2-wf.dat',
plot_num = 11
/
