&PROJWFC
prefix = 'Mn2Ta2_beef',
outdir = './Mn2Ta2',
degauss = 0.001,
DeltaE = 0.001,
filpdos = 'Mn2Ta2.pdos.out',
filproj = 'Mn2Ta2.proj.out',
/
