&DOS
prefix = 'Mn2Ta2_beef',
outdir = './Mn2Ta2',
degauss = 0.001,
DeltaE = 0.001,
fildos = 'Mn2Ta2.dos.out',
/
