&INPUTPP
prefix = 'Mn2W2_beef',
outdir = './Mn2W2',
filplot = 'Mn2W2-wf.dat',
plot_num = 11
/
