&DOS
prefix = 'Mn2W2_beef',
outdir = './Mn2W2',
degauss = 0.001,
DeltaE = 0.001,
fildos = 'Mn2W2.dos.out',
/
