&PROJWFC
prefix = 'Mn2W2_beef',
outdir = './Mn2W2',
degauss = 0.001,
DeltaE = 0.001,
filpdos = 'Mn2W2.pdos.out',
filproj = 'Mn2W2.proj.out',
/
