&PROJWFC
prefix = 'Mn2Y2_beef',
outdir = './Mn2Y2',
degauss = 0.001,
DeltaE = 0.001,
filpdos = 'Mn2Y2.pdos.out',
filproj = 'Mn2Y2.proj.out',
/
