&INPUTPP
prefix = 'Mn2Y2_beef',
outdir = './Mn2Y2',
filplot = 'Mn2Y2-wf.dat',
plot_num = 11
/
