&DOS
prefix = 'Mn2Y2_beef',
outdir = './Mn2Y2',
degauss = 0.001,
DeltaE = 0.001,
fildos = 'Mn2Y2.dos.out',
/
