&INPUTPP
prefix = 'Mn2Zr2_beef',
outdir = './Mn2Zr2',
filplot = 'Mn2Zr2-wf.dat',
plot_num = 11
/
