&DOS
prefix = 'Mn2Zr2_beef',
outdir = './Mn2Zr2',
degauss = 0.001,
DeltaE = 0.001,
fildos = 'Mn2Zr2.dos.out',
/
