&PROJWFC
prefix = 'Mn2Zr2_beef',
outdir = './Mn2Zr2',
degauss = 0.001,
DeltaE = 0.001,
filpdos = 'Mn2Zr2.pdos.out',
filproj = 'Mn2Zr2.proj.out',
/
