&CONTROL
   calculation      = 'scf'
   tstress          = .true.
   tprnfor          = .true.
   outdir           = './Co2Mn2'
   prefix           = 'Co2Mn2_beef'
   pseudo_dir       = '../pseudo'
   tefield          = .true.
   dipfield         = .true.
/
&SYSTEM
   celldm(1)        = 1.889726
   ecutwfc          = 55.123963237125
   ecutrho          = 551.23963237125
   nosym            = .true.
   occupations      = 'smearing'
   degauss          = 0.01D0
   smearing         = 'fd'
   input_dft        = 'BEEF-vdW'
   edir             = 3
   emaxpos          = 0.95
   eopreg           = 0.05
   eamp             = 0.01
   nspin            = 2
   starting_magnetization(1) = 0.7058823529411765
   starting_magnetization(2) = 0.3333333333333333
   ntyp             = 2
   nat              = 12
   ibrav            = 0
/
&ELECTRONS
   electron_maxstep = 500
   conv_thr         = 1e-05
   mixing_mode      = 'plain'
   mixing_beta      = 0.1
   mixing_ndim      = 10
/
&IONS
/
&CELL
/

ATOMIC_SPECIES
Co  58.933194 Co.pbe-spn-rrkjus_psl.0.3.1.UPF
Mn  54.938044 Mn.pbe-spn-rrkjus_psl.0.3.1.UPF

K_POINTS automatic
12 12 1  0 0 0

CELL_PARAMETERS alat
4.93382900000000 0.00000000000000 0.00000000000000
1.70844400000000 4.62859500000000 0.00000000000000
0.00000000000000 0.00000000000000 24.04627000000000

ATOMIC_POSITIONS alat
Co  0.0000000000 0.0000000000 9.9999996689
Co  3.3211365000 2.3142975000 9.9999996689
Mn  2.4669145000 0.0000000000 9.9999996689
Mn  0.8542220000 2.3142975000 9.9999996689
Co  4.9338285747 3.4380842630 12.0231350000
Co  1.6126920747 1.1237867630 12.0231350000
Mn  2.4669140747 3.4380842630 12.0231350000
Mn  4.0796065747 1.1237867630 12.0231350000
Co  3.2404401629 2.2580036019 13.9588501165
Co  6.5615288727 4.5723895081 13.9588140471
Mn  5.7115582999 2.2609978400 14.1259957393
Mn  4.0988248254 4.5752578484 14.1259981439

