&CONTROL
   calculation      = 'scf'
   tstress          = .true.
   tprnfor          = .true.
   outdir           = './Cr2Mn2'
   prefix           = 'Cr2Mn2_beef'
   pseudo_dir       = '../pseudo'
   tefield          = .true.
   dipfield         = .true.
/
&SYSTEM
   celldm(1)        = 1.889726
   ecutwfc          = 55.123963237125
   ecutrho          = 551.23963237125
   nosym            = .true.
   occupations      = 'smearing'
   degauss          = 0.01D0
   smearing         = 'fd'
   input_dft        = 'BEEF-vdW'
   edir             = 3
   emaxpos          = 0.95
   eopreg           = 0.05
   eamp             = 0.01
   nspin            = 2
   starting_magnetization(1) = 0.0
   starting_magnetization(2) = 0.3333333333333333
   ntyp             = 2
   nat              = 12
   ibrav            = 0
/
&ELECTRONS
   electron_maxstep = 500
   conv_thr         = 1e-05
   mixing_mode      = 'plain'
   mixing_beta      = 0.1
   mixing_ndim      = 10
/
&IONS
/
&CELL
/

ATOMIC_SPECIES
Cr  51.9961 Cr.pbe-spn-rrkjus_psl.1.0.0.UPF
Mn  54.938044 Mn.pbe-spn-rrkjus_psl.0.3.1.UPF

K_POINTS automatic
12 12 1  0 0 0

CELL_PARAMETERS alat
4.88518300000000 0.00000000000000 0.00000000000000
1.62802400000000 4.60592600000000 0.00000000000000
0.00000000000000 0.00000000000000 23.98862200000000

ATOMIC_POSITIONS alat
Cr  0.0000000000 0.0000000000 10.0000000000
Cr  3.2566036000 2.3029631000 10.0000000000
Mn  2.4425917000 0.0000000000 10.0000000000
Mn  0.8140119000 2.3029631000 10.0000000000
Cr  4.8851834000 3.4546412000 11.9943110000
Cr  1.6285798000 1.1516782000 11.9943110000
Mn  2.4425917000 3.4546412000 11.9943110000
Mn  4.0711715000 1.1516782000 11.9943110000
Cr  3.2570339000 2.3032413000 13.9894551000
Cr  0.0003672000 0.0002855000 13.9894305000
Mn  0.8144909000 2.3032437000 13.8671358000
Mn  2.4429455000 0.0003138000 13.8671746000

