&CONTROL
   calculation      = 'scf'
   tstress          = .true.
   tprnfor          = .true.
   outdir           = './Mn2Hg2'
   prefix           = 'Mn2Hg2_beef'
   pseudo_dir       = '../pseudo'
   tefield          = .true.
   dipfield         = .true.
/
&SYSTEM
   celldm(1)        = 1.889726
   ecutwfc          = 55.123963237125
   ecutrho          = 551.23963237125
   nosym            = .true.
   occupations      = 'smearing'
   degauss          = 0.01D0
   smearing         = 'fd'
   input_dft        = 'BEEF-vdW'
   edir             = 3
   emaxpos          = 0.95
   eopreg           = 0.05
   eamp             = 0.01
   nspin            = 2
   starting_magnetization(1) = 0.3333333333333333
   starting_magnetization(2) = 0.0
   ntyp             = 2
   nat              = 12
   ibrav            = 0
/
&ELECTRONS
   electron_maxstep = 500
   conv_thr         = 1e-05
   mixing_mode      = 'plain'
   mixing_beta      = 0.1
   mixing_ndim      = 10
/
&IONS
/
&CELL
/

ATOMIC_SPECIES
Mn  54.938044 Mn.pbe-spn-rrkjus_psl.0.3.1.UPF
Hg  200.592 Hg.pbe-n-rrkjus_psl.1.0.0.UPF

K_POINTS automatic
12 12 1  0 0 0

CELL_PARAMETERS alat
5.87133200000000 0.00000000000000 0.00000000000000
2.06072500000000 5.49781300000000 0.00000000000000
0.00000000000000 0.00000000000000 24.82183700000000

ATOMIC_POSITIONS alat
Mn  0.0000000000 0.0000000000 10.0000000000
Mn  3.9660288000 2.7489067000 10.0000000000
Hg  2.9356661000 0.0000000000 10.0000000000
Hg  1.0303627000 2.7489067000 10.0000000000
Mn  5.8713322000 4.0694976000 12.4109185000
Mn  1.9053034000 1.3205909000 12.4109185000
Hg  2.9356661000 4.0694976000 12.4109185000
Hg  4.8409695000 1.3205909000 12.4109185000
Mn  3.8065477000 2.6383676000 14.7860993000
Mn  7.7725542000 5.3872581000 14.7860656000
Hg  6.7539609000 2.6465080000 15.0426000000
Hg  4.8486550000 5.3954222000 15.0426027000

