&CONTROL
   calculation      = 'scf'
   tstress          = .true.
   tprnfor          = .true.
   outdir           = './Mn2Pt2'
   prefix           = 'Mn2Pt2_beef'
   pseudo_dir       = '../pseudo'
   tefield          = .true.
   dipfield         = .true.
/
&SYSTEM
   celldm(1)        = 1.889726
   ecutwfc          = 55.123963237125
   ecutrho          = 551.23963237125
   nosym            = .true.
   occupations      = 'smearing'
   degauss          = 0.01D0
   smearing         = 'fd'
   input_dft        = 'BEEF-vdW'
   edir             = 3
   emaxpos          = 0.95
   eopreg           = 0.05
   eamp             = 0.01
   nspin            = 2
   starting_magnetization(1) = 0.3333333333333333
   starting_magnetization(2) = 0.0
   ntyp             = 2
   nat              = 12
   ibrav            = 0
/
&ELECTRONS
   electron_maxstep = 500
   conv_thr         = 1e-05
   mixing_mode      = 'plain'
   mixing_beta      = 0.1
   mixing_ndim      = 10
/
&IONS
/
&CELL
/

ATOMIC_SPECIES
Mn  54.938044 Mn.pbe-spn-rrkjus_psl.0.3.1.UPF
Pt  195.084 Pt.pbe-n-rrkjus_psl.1.0.0.UPF

K_POINTS automatic
12 12 1  0 0 0

CELL_PARAMETERS alat
5.46971800000000 0.00000000000000 0.00000000000000
2.25216200000000 4.98453400000000 0.00000000000000
0.00000000000000 0.00000000000000 24.53120600000000

ATOMIC_POSITIONS alat
Mn  0.0000000000 0.0000000000 10.0000000000
Mn  3.8609401000 2.4922672000 10.0000000000
Pt  2.7348591000 0.0000000000 10.0000000000
Pt  1.1260810000 2.4922672000 10.0000000000
Mn  5.4697181000 3.5307460000 12.2656031000
Mn  1.6087780000 1.0384789000 12.2656031000
Pt  2.7348591000 3.5307460000 12.2656031000
Pt  4.3436371000 1.0384789000 12.2656031000
Mn  3.5705092000 2.3047930000 14.5897259000
Mn  7.4314487000 4.7970586000 14.5897361000
Pt  6.3121118000 2.3091469000 14.4452432000
Pt  4.7033366000 4.8014131000 14.4452444000

