&CONTROL
   calculation      = 'scf'
   tstress          = .true.
   tprnfor          = .true.
   outdir           = './Mn2Rh2'
   prefix           = 'Mn2Rh2_beef'
   pseudo_dir       = '../pseudo'
   tefield          = .true.
   dipfield         = .true.
/
&SYSTEM
   celldm(1)        = 1.889726
   ecutwfc          = 55.123963237125
   ecutrho          = 551.23963237125
   nosym            = .true.
   occupations      = 'smearing'
   degauss          = 0.01D0
   smearing         = 'fd'
   input_dft        = 'BEEF-vdW'
   edir             = 3
   emaxpos          = 0.95
   eopreg           = 0.05
   eamp             = 0.01
   nspin            = 2
   starting_magnetization(1) = 0.3333333333333333
   starting_magnetization(2) = 0.0
   ntyp             = 2
   nat              = 12
   ibrav            = 0
/
&ELECTRONS
   electron_maxstep = 500
   conv_thr         = 1e-05
   mixing_mode      = 'plain'
   mixing_beta      = 0.1
   mixing_ndim      = 10
/
&IONS
/
&CELL
/

ATOMIC_SPECIES
Mn  54.938044 Mn.pbe-spn-rrkjus_psl.0.3.1.UPF
Rh  102.9055 Rh.pbe-spn-rrkjus_psl.1.0.0.UPF

K_POINTS automatic
12 12 1  0 0 0

CELL_PARAMETERS alat
5.28611200000000 0.00000000000000 0.00000000000000
1.77042900000000 4.98082000000000 0.00000000000000
0.00000000000000 0.00000000000000 24.31863400000000

ATOMIC_POSITIONS alat
Mn  0.0000000000 0.0000000000 10.0000000000
Mn  3.5282705000 2.4904099000 10.0000000000
Rh  2.6430562000 0.0000000000 10.0000000000
Rh  0.8852143000 2.4904099000 10.0000000000
Mn  5.2861124000 3.7311727000 12.1593169000
Mn  1.7578418000 1.2407628000 12.1593169000
Rh  2.6430562000 3.7311727000 12.1593169000
Rh  4.4008980000 1.2407628000 12.1593169000
Mn  3.5166917000 2.4822373000 14.3871602000
Mn  7.0449602000 4.9726454000 14.3871648000
Rh  6.1599716000 2.4823918000 14.2103011000
Rh  4.4021270000 4.9728060000 14.2103015000

