&CONTROL
   calculation      = 'scf'
   tstress          = .true.
   tprnfor          = .true.
   outdir           = './Mn2Re2'
   prefix           = 'Mn2Re2_beef'
   pseudo_dir       = '../pseudo'
   tefield          = .true.
   dipfield         = .true.
/
&SYSTEM
   celldm(1)        = 1.889726
   ecutwfc          = 55.123963237125
   ecutrho          = 551.23963237125
   nosym            = .true.
   occupations      = 'smearing'
   degauss          = 0.01D0
   smearing         = 'fd'
   input_dft        = 'BEEF-vdW'
   edir             = 3
   emaxpos          = 0.95
   eopreg           = 0.05
   eamp             = 0.01
   nspin            = 2
   starting_magnetization(1) = 0.3333333333333333
   starting_magnetization(2) = 0.0
   ntyp             = 2
   nat              = 12
   ibrav            = 0
/
&ELECTRONS
   electron_maxstep = 500
   conv_thr         = 1e-05
   mixing_mode      = 'plain'
   mixing_beta      = 0.1
   mixing_ndim      = 10
/
&IONS
/
&CELL
/

ATOMIC_SPECIES
Mn  54.938044 Mn.pbe-spn-rrkjus_psl.0.3.1.UPF
Re  186.207 Re.pbe-spn-rrkjus_psl.1.0.0.UPF

K_POINTS automatic
12 12 1  0 0 0

CELL_PARAMETERS alat
5.28669100000000 0.00000000000000 0.00000000000000
2.59264300000000 4.60731000000000 0.00000000000000
0.00000000000000 0.00000000000000 24.32963400000000

ATOMIC_POSITIONS alat
Mn  0.0000000000 0.0000000000 10.0000000000
Mn  3.9396667000 2.3036550000 10.0000000000
Re  2.6433455000 0.0000000000 10.0000000000
Re  1.2963213000 2.3036550000 10.0000000000
Mn  5.2866909000 3.0913051000 12.1648172000
Mn  1.3470242000 0.7876501000 12.1648172000
Re  2.6433455000 3.0913051000 12.1648172000
Re  3.9903696000 0.7876501000 12.1648172000
Mn  2.7097777000 1.5844952000 14.3705073000
Mn  6.6495616000 3.8882202000 14.3705785000
Re  5.3546014000 1.5853565000 14.2406004000
Re  4.0075765000 3.8890231000 14.2405982000

