&CONTROL
   calculation      = 'scf'
   tstress          = .true.
   tprnfor          = .true.
   outdir           = './Mn2Ru2'
   prefix           = 'Mn2Ru2_beef'
   pseudo_dir       = '../pseudo'
   tefield          = .true.
   dipfield         = .true.
/
&SYSTEM
   celldm(1)        = 1.889726
   ecutwfc          = 55.123963237125
   ecutrho          = 551.23963237125
   nosym            = .true.
   occupations      = 'smearing'
   degauss          = 0.01D0
   smearing         = 'fd'
   input_dft        = 'BEEF-vdW'
   edir             = 3
   emaxpos          = 0.95
   eopreg           = 0.05
   eamp             = 0.01
   nspin            = 2
   starting_magnetization(1) = 0.3333333333333333
   starting_magnetization(2) = 0.0
   ntyp             = 2
   nat              = 12
   ibrav            = 0
/
&ELECTRONS
   electron_maxstep = 500
   conv_thr         = 1e-05
   mixing_mode      = 'plain'
   mixing_beta      = 0.1
   mixing_ndim      = 10
/
&IONS
/
&CELL
/

ATOMIC_SPECIES
Mn  54.938044 Mn.pbe-spn-rrkjus_psl.0.3.1.UPF
Ru  101.07 Ru.pbe-spn-rrkjus_psl.1.0.0.UPF

K_POINTS automatic
12 12 1  0 0 0

CELL_PARAMETERS alat
5.20404700000000 0.00000000000000 0.00000000000000
1.72639300000000 4.90934600000000 0.00000000000000
0.00000000000000 0.00000000000000 24.24652100000000

ATOMIC_POSITIONS alat
Mn  0.0000000000 0.0000000000 10.0000000000
Mn  3.4652201000 2.4546730000 10.0000000000
Ru  2.6020237000 0.0000000000 10.0000000000
Ru  0.8631964000 2.4546730000 10.0000000000
Mn  5.2040475000 3.6864137000 12.1232603000
Mn  1.7388274000 1.2317407000 12.1232603000
Ru  2.6020237000 3.6864137000 12.1232603000
Ru  4.3408511000 1.2317407000 12.1232603000
Mn  3.4765452000 2.4626954000 14.3281684000
Mn  0.0113645000 0.0080503000 14.3281635000
Ru  0.8746946000 2.4628448000 14.0991141000
Ru  2.6135472000 0.0081363000 14.0991142000

