&CONTROL
   calculation      = 'scf'
   tstress          = .true.
   tprnfor          = .true.
   outdir           = './Mn2Y2'
   prefix           = 'Mn2Y2_beef'
   pseudo_dir       = '../pseudo'
   tefield          = .true.
   dipfield         = .true.
/
&SYSTEM
   celldm(1)        = 1.889726
   ecutwfc          = 55.123963237125
   ecutrho          = 551.23963237125
   nosym            = .true.
   occupations      = 'smearing'
   degauss          = 0.01D0
   smearing         = 'fd'
   input_dft        = 'BEEF-vdW'
   edir             = 3
   emaxpos          = 0.95
   eopreg           = 0.05
   eamp             = 0.01
   nspin            = 2
   starting_magnetization(1) = 0.3333333333333333
   starting_magnetization(2) = 0.0
   ntyp             = 2
   nat              = 12
   ibrav            = 0
/
&ELECTRONS
   electron_maxstep = 500
   conv_thr         = 1e-05
   mixing_mode      = 'plain'
   mixing_beta      = 0.1
   mixing_ndim      = 10
/
&IONS
/
&CELL
/

ATOMIC_SPECIES
Mn  54.938044 Mn.pbe-spn-rrkjus_psl.0.3.1.UPF
Y  88.90584 Y.pbe-spn-rrkjus_psl.1.0.0.UPF

K_POINTS automatic
12 12 1  0 0 0

CELL_PARAMETERS alat
6.18572900000000 0.00000000000000 0.00000000000000
2.01505600000000 5.84831500000000 0.00000000000000
0.00000000000000 0.00000000000000 25.03552000000000

ATOMIC_POSITIONS alat
Mn  0.0000000000 0.0000000000 10.0000000000
Mn  4.1003922000 2.9241577000 10.0000000000
Y  3.0928644000 0.0000000000 10.0000000000
Y  1.0075278000 2.9241577000 10.0000000000
Mn  6.1857288000 4.4112966000 12.5177601000
Mn  2.0853366000 1.4871390000 12.5177601000
Y  3.0928644000 4.4112966000 12.5177601000
Y  5.1782010000 1.4871390000 12.5177601000
Mn  4.1672434000 2.9718064000 14.8400513000
Mn  0.0662977000 0.0473092000 14.8399940000
Y  1.0664081000 2.9660190000 14.9831046000
Y  3.1515914000 0.0420122000 14.9831050000

