&CONTROL
   calculation      = 'scf'
   tstress          = .true.
   tprnfor          = .true.
   outdir           = './Mn2Zn2'
   prefix           = 'Mn2Zn2_beef'
   pseudo_dir       = '../pseudo'
   tefield          = .true.
   dipfield         = .true.
/
&SYSTEM
   celldm(1)        = 1.889726
   ecutwfc          = 55.123963237125
   ecutrho          = 551.23963237125
   nosym            = .true.
   occupations      = 'smearing'
   degauss          = 0.01D0
   smearing         = 'fd'
   input_dft        = 'BEEF-vdW'
   edir             = 3
   emaxpos          = 0.95
   eopreg           = 0.05
   eamp             = 0.01
   nspin            = 2
   starting_magnetization(1) = 0.3333333333333333
   starting_magnetization(2) = 0.0
   ntyp             = 2
   nat              = 12
   ibrav            = 0
/
&ELECTRONS
   electron_maxstep = 500
   conv_thr         = 1e-05
   mixing_mode      = 'plain'
   mixing_beta      = 0.1
   mixing_ndim      = 10
/
&IONS
/
&CELL
/

ATOMIC_SPECIES
Mn  54.938044 Mn.pbe-spn-rrkjus_psl.0.3.1.UPF
Zn  65.38 Zn.pbe-spn-rrkjus_psl.1.0.0.UPF

K_POINTS automatic
12 12 1  0 0 0

CELL_PARAMETERS alat
5.36860400000000 0.00000000000000 0.00000000000000
2.55308100000000 4.72267800000000 0.00000000000000
0.00000000000000 0.00000000000000 24.41431900000000

ATOMIC_POSITIONS alat
Mn  0.0000000000 0.0000000000 10.0000000000
Mn  3.9608426000 2.3613391000 10.0000000000
Zn  2.6843021000 0.0000000000 10.0000000000
Zn  1.2765405000 2.3613391000 10.0000000000
Mn  5.3686043000 3.2006056000 12.2071597000
Mn  1.4077617000 0.8392665000 12.2071597000
Zn  2.6843021000 3.2006056000 12.2071597000
Zn  4.0920638000 0.8392665000 12.2071597000
Mn  2.8206311000 1.6815791000 14.4169226000
Mn  6.7817460000 4.0430799000 14.4168553000
Zn  5.4969613000 1.6773072000 14.5026553000
Zn  4.0896223000 4.0379387000 14.5026556000

