&CONTROL
   calculation      = 'scf'
   tstress          = .true.
   tprnfor          = .true.
   outdir           = './Fe2Ir2'
   prefix           = 'Fe2Ir2_beef'
   pseudo_dir       = '../pseudo'
   tefield          = .true.
   dipfield         = .true.
/
&SYSTEM
   celldm(1)        = 1.889726
   ecutwfc          = 55.123963237125
   ecutrho          = 551.23963237125
   nosym            = .true.
   occupations      = 'smearing'
   degauss          = 0.01D0
   smearing         = 'fd'
   input_dft        = 'BEEF-vdW'
   edir             = 3
   emaxpos          = 0.95
   eopreg           = 0.05
   eamp             = 0.01
   nspin            = 2
   starting_magnetization(1) = 0.375
   starting_magnetization(2) = 0.0
   ntyp             = 2
   nat              = 12
   ibrav            = 0
/
&ELECTRONS
   electron_maxstep = 500
   conv_thr         = 1e-05
   mixing_mode      = 'plain'
   mixing_beta      = 0.1
   mixing_ndim      = 10
/
&IONS
/
&CELL
/

ATOMIC_SPECIES
Fe  55.845 Fe.pbe-n-rrkjus_psl.1.0.0.UPF
Ir  192.217 Ir.pbe-n-rrkjus_psl.0.2.3.UPF

K_POINTS automatic
12 12 1  0 0 0

CELL_PARAMETERS alat
5.27810600000000 0.00000000000000 0.00000000000000
2.53728400000000 4.62823800000000 0.00000000000000
0.00000000000000 0.00000000000000 24.33429700000000

ATOMIC_POSITIONS alat
Fe  0.0000000000 0.0000000000 10.0000000000
Fe  3.9076947000 2.3141192000 10.0000000000
Ir  2.6390529000 0.0000000000 10.0000000000
Ir  1.2686419000 2.3141192000 10.0000000000
Fe  5.2781057000 3.1256704000 12.1671484000
Fe  1.3704110000 0.8115512000 12.1671484000
Ir  2.6390529000 3.1256704000 12.1671484000
Ir  4.0094638000 0.8115512000 12.1671484000
Fe  2.6820656000 1.5883085000 14.3476291000
Fe  6.5899847000 3.9025596000 14.3473660000
Ir  5.3437841000 1.6013267000 14.3209468000
Ir  3.9730190000 3.9160428000 14.3209462000

