&CONTROL
   calculation      = 'scf'
   tstress          = .true.
   tprnfor          = .true.
   outdir           = './Ag2W2'
   prefix           = 'Ag2W2_beef'
   pseudo_dir       = '../pseudo'
   tefield          = .true.
   dipfield         = .true.
/
&SYSTEM
   celldm(1)        = 1.889726
   ecutwfc          = 55.123963237125
   ecutrho          = 551.23963237125
   nosym            = .true.
   occupations      = 'smearing'
   degauss          = 0.01D0
   smearing         = 'fd'
   input_dft        = 'BEEF-vdW'
   edir             = 3
   emaxpos          = 0.95
   eopreg           = 0.05
   eamp             = 0.01
   ntyp             = 2
   nat              = 12
   ibrav            = 0
/
&ELECTRONS
   electron_maxstep = 500
   conv_thr         = 1e-05
   mixing_mode      = 'plain'
   mixing_beta      = 0.1
   mixing_ndim      = 10
/
&IONS
/
&CELL
/

ATOMIC_SPECIES
Ag 107.8682 Ag.pbe-n-rrkjus_psl.1.0.0.UPF
W 183.84 W.pbe-spn-rrkjus_psl.0.2.3.UPF

K_POINTS automatic
12 12 1  0 0 0

CELL_PARAMETERS alat
5.39975000000000 0.00000000000000 0.00000000000000
-2.69987500000000 5.33808100000000 0.00000000000000
0.00000000000000 0.00000000000000 24.65817300000000

ATOMIC_POSITIONS alat
Ag 0.0000000000 0.0000000000 10.0000000000 
Ag 2.6998749000 0.0000000000 10.0000000000 
W 1.3499375000 2.6690407000 10.0000000000 
W -1.3499375000 2.6690407000 10.0000000000 
Ag 2.6998749000 1.3655327000 12.3290867000 
Ag 0.0000000000 1.3655327000 12.3290867000 
W -1.3499375000 4.0345734000 12.3290867000 
W 1.3499375000 4.0345734000 12.3290867000 
Ag 0.0005763000 2.6668301000 14.8532545000 
Ag 2.7001324000 2.6668308000 14.8532553000 
W 1.3493990000 5.2695551000 14.5329257000 
W -1.3504785000 5.2695956000 14.5329567000 

