&CONTROL
   calculation      = 'scf'
   tstress          = .true.
   tprnfor          = .true.
   outdir           = './Cu2Pd2'
   prefix           = 'Cu2Pd2_beef'
   pseudo_dir       = '../pseudo'
   tefield          = .true.
   dipfield         = .true.
/
&SYSTEM
   celldm(1)        = 1.889726
   ecutwfc          = 55.123963237125
   ecutrho          = 551.23963237125
   nosym            = .true.
   occupations      = 'smearing'
   degauss          = 0.01D0
   smearing         = 'fd'
   input_dft        = 'BEEF-vdW'
   edir             = 3
   emaxpos          = 0.95
   eopreg           = 0.05
   eamp             = 0.01
   ntyp             = 2
   nat              = 12
   ibrav            = 0
/
&ELECTRONS
   electron_maxstep = 500
   conv_thr         = 1e-05
   mixing_mode      = 'plain'
   mixing_beta      = 0.1
   mixing_ndim      = 10
/
&IONS
/
&CELL
/

ATOMIC_SPECIES
Cu 63.546 Cu.pbe-dn-rrkjus_psl.1.0.0.UPF
Pd 106.42 Pd.pbe-n-rrkjus_psl.1.0.0.UPF

K_POINTS automatic
12 12 1  0 0 0

CELL_PARAMETERS alat
5.27034800000000 0.00000000000000 0.00000000000000
1.75678700000000 4.96893000000000 0.00000000000000
0.00000000000000 0.00000000000000 24.30322200000000

ATOMIC_POSITIONS alat
Cu 0.0000000000 0.0000000000 10.0000000000 
Cu 3.5135674000 2.4844650000 10.0000000000 
Pd 2.6351739000 0.0000000000 10.0000000000 
Pd 0.8783935000 2.4844650000 10.0000000000 
Cu 5.2703478000 3.7266951000 12.1516112000 
Cu 1.7567804000 1.2422301000 12.1516112000 
Pd 2.6351739000 3.7266951000 12.1516112000 
Pd 4.3919543000 1.2422301000 12.1516112000 
Cu 3.5135581000 2.4844630000 14.2936223000 
Cu 7.0271303000 4.9689217000 14.2936050000 
Pd 6.1487349000 2.4844607000 14.2762583000 
Pd 4.3919547000 4.9689254000 14.2762571000 

