&CONTROL
   calculation      = 'scf'
   tstress          = .true.
   tprnfor          = .true.
   outdir           = './Pd2Ir2'
   prefix           = 'Pd2Ir2_beef'
   pseudo_dir       = '../pseudo'
   tefield          = .true.
   dipfield         = .true.
/
&SYSTEM
   celldm(1)        = 1.889726
   ecutwfc          = 55.123963237125
   ecutrho          = 551.23963237125
   nosym            = .true.
   occupations      = 'smearing'
   degauss          = 0.01D0
   smearing         = 'fd'
   input_dft        = 'BEEF-vdW'
   edir             = 3
   emaxpos          = 0.95
   eopreg           = 0.05
   eamp             = 0.01
   ntyp             = 2
   nat              = 12
   ibrav            = 0
/
&ELECTRONS
   electron_maxstep = 500
   conv_thr         = 1e-05
   mixing_mode      = 'plain'
   mixing_beta      = 0.1
   mixing_ndim      = 10
/
&IONS
/
&CELL
/

ATOMIC_SPECIES
Pd 106.42 Pd.pbe-n-rrkjus_psl.1.0.0.UPF
Ir 192.217 Ir.pbe-n-rrkjus_psl.0.2.3.UPF

K_POINTS automatic
12 12 1  0 0 0

CELL_PARAMETERS alat
5.52609700000000 0.00000000000000 0.00000000000000
-2.76304800000000 4.81956800000000 0.00000000000000
0.00000000000000 0.00000000000000 24.52779100000000

ATOMIC_POSITIONS alat
Pd 0.0000000000 0.0000000000 10.0000000000 
Pd 2.7630483000 0.0000000000 10.0000000000 
Ir 1.3815241000 2.4097842000 10.0000000000 
Ir -1.3815241000 2.4097842000 10.0000000000 
Pd 2.7630483000 1.5840496000 12.2638954000 
Pd -0.0000000000 1.5840496000 12.2638954000 
Ir -1.3815241000 3.9938339000 12.2638954000 
Ir 1.3815241000 3.9938339000 12.2638954000 
Pd 0.0000436000 3.0544681000 14.6119289000 
Pd 2.7631336000 3.0544652000 14.6119267000 
Ir 4.1446127000 0.6092506000 14.4271179000 
Ir 1.3815630000 0.6092418000 14.4271116000 

