&CONTROL
   calculation      = 'scf'
   tstress          = .true.
   tprnfor          = .true.
   outdir           = './Pd2Y2'
   prefix           = 'Pd2Y2_beef'
   pseudo_dir       = '../pseudo'
   tefield          = .true.
   dipfield         = .true.
/
&SYSTEM
   celldm(1)        = 1.889726
   ecutwfc          = 55.123963237125
   ecutrho          = 551.23963237125
   nosym            = .true.
   occupations      = 'smearing'
   degauss          = 0.01D0
   smearing         = 'fd'
   input_dft        = 'BEEF-vdW'
   edir             = 3
   emaxpos          = 0.95
   eopreg           = 0.05
   eamp             = 0.01
   ntyp             = 2
   nat              = 12
   ibrav            = 0
/
&ELECTRONS
   electron_maxstep = 500
   conv_thr         = 1e-05
   mixing_mode      = 'plain'
   mixing_beta      = 0.1
   mixing_ndim      = 10
/
&IONS
/
&CELL
/

ATOMIC_SPECIES
Pd 106.42 Pd.pbe-n-rrkjus_psl.1.0.0.UPF
Y 88.90584 Y.pbe-spn-rrkjus_psl.1.0.0.UPF

K_POINTS automatic
12 12 1  0 0 0

CELL_PARAMETERS alat
6.11913900000000 0.00000000000000 0.00000000000000
2.03497100000000 5.77085400000000 0.00000000000000
0.00000000000000 0.00000000000000 24.99479700000000

ATOMIC_POSITIONS alat
Pd 0.0000000000 0.0000000000 10.0000000000 
Pd 4.0770552000 2.8854271000 10.0000000000 
Y 3.0595696000 0.0000000000 10.0000000000 
Y 1.0174856000 2.8854271000 10.0000000000 
Pd 6.1191393000 4.3306576000 12.4973983000 
Pd 2.0420841000 1.4452305000 12.4973983000 
Y 3.0595696000 4.3306576000 12.4973983000 
Y 5.1016537000 1.4452305000 12.4973983000 
Pd 4.0828329000 2.8895308000 14.7805835000 
Pd 0.0057808000 0.0040764000 14.7805818000 
Y 1.0225481000 2.8890183000 14.9992785000 
Y 3.0646645000 0.0036012000 14.9992829000 

