&CONTROL
   calculation      = 'scf'
   tstress          = .true.
   tprnfor          = .true.
   outdir           = './Ru2Pd2'
   prefix           = 'Ru2Pd2_beef'
   pseudo_dir       = '../pseudo'
   tefield          = .true.
   dipfield         = .true.
/
&SYSTEM
   celldm(1)        = 1.889726
   ecutwfc          = 55.123963237125
   ecutrho          = 551.23963237125
   nosym            = .true.
   occupations      = 'smearing'
   degauss          = 0.01D0
   smearing         = 'fd'
   input_dft        = 'BEEF-vdW'
   edir             = 3
   emaxpos          = 0.95
   eopreg           = 0.05
   eamp             = 0.01
   ntyp             = 2
   nat              = 12
   ibrav            = 0
/
&ELECTRONS
   electron_maxstep = 500
   conv_thr         = 1e-05
   mixing_mode      = 'plain'
   mixing_beta      = 0.1
   mixing_ndim      = 10
/
&IONS
/
&CELL
/

ATOMIC_SPECIES
Ru 101.07 Ru.pbe-spn-rrkjus_psl.1.0.0.UPF
Pd 106.42 Pd.pbe-n-rrkjus_psl.1.0.0.UPF

K_POINTS automatic
12 12 1  0 0 0

CELL_PARAMETERS alat
5.44868300000000 0.00000000000000 0.00000000000000
-2.72434100000000 4.82470600000000 0.00000000000000
0.00000000000000 0.00000000000000 24.49690900000000

ATOMIC_POSITIONS alat
Ru 0.0000000000 0.0000000000 10.0000000000 
Ru 2.7243415000 0.0000000000 10.0000000000 
Pd 1.3621707000 2.4123530000 10.0000000000 
Pd -1.3621707000 2.4123530000 10.0000000000 
Ru 2.7243415000 1.5383396000 12.2484545000 
Ru -0.0000000000 1.5383396000 12.2484545000 
Pd -1.3621707000 3.9506926000 12.2484545000 
Pd 1.3621707000 3.9506926000 12.2484545000 
Ru 0.0000027000 2.9470414000 14.3560882000 
Ru 2.7243418000 2.9474236000 14.3565466000 
Pd 4.0864532000 0.6086201000 14.5373767000 
Pd 1.3622299000 0.6086175000 14.5373783000 

