&CONTROL
   calculation      = 'scf'
   tstress          = .true.
   tprnfor          = .true.
   outdir           = './Tc2W2'
   prefix           = 'Tc2W2_beef'
   pseudo_dir       = '../pseudo'
   tefield          = .true.
   dipfield         = .true.
/
&SYSTEM
   celldm(1)        = 1.889726
   ecutwfc          = 55.123963237125
   ecutrho          = 551.23963237125
   nosym            = .true.
   occupations      = 'smearing'
   degauss          = 0.01D0
   smearing         = 'fd'
   input_dft        = 'BEEF-vdW'
   edir             = 3
   emaxpos          = 0.95
   eopreg           = 0.05
   eamp             = 0.01
   ntyp             = 2
   nat              = 12
   ibrav            = 0
/
&ELECTRONS
   electron_maxstep = 500
   conv_thr         = 1e-05
   mixing_mode      = 'plain'
   mixing_beta      = 0.1
   mixing_ndim      = 10
/
&IONS
/
&CELL
/

ATOMIC_SPECIES
Tc 97.90721 Tc.pbe-spn-rrkjus_psl.0.3.0.UPF
W 183.84 W.pbe-spn-rrkjus_psl.0.2.3.UPF

K_POINTS automatic
12 12 1  0 0 0

CELL_PARAMETERS alat
5.42560800000000 0.00000000000000 0.00000000000000
1.81644500000000 5.11250900000000 0.00000000000000
0.00000000000000 0.00000000000000 24.43238800000000

ATOMIC_POSITIONS alat
Tc 0.0000000000 0.0000000000 10.0000000000 
Tc 3.6210269000 2.5562546000 10.0000000000 
W 2.7128041000 0.0000000000 10.0000000000 
W 0.9082227000 2.5562546000 10.0000000000 
Tc 5.4256083000 3.8301943000 12.2161940000 
Tc 1.8045814000 1.2739396000 12.2161940000 
W 2.7128041000 3.8301943000 12.2161940000 
W 4.5173856000 1.2739396000 12.2161940000 
Tc 3.6119826000 2.5498697000 14.3038638000 
Tc 7.2330085000 5.1061243000 14.3038642000 
W 6.3249673000 2.5499989000 14.3966991000 
W 4.5203862000 5.1062526000 14.3966976000 

