&CONTROL
   calculation      = 'scf'
   tstress          = .true.
   tprnfor          = .true.
   outdir           = './Ti2V2'
   prefix           = 'Ti2V2_beef'
   pseudo_dir       = '../pseudo'
   tefield          = .true.
   dipfield         = .true.
/
&SYSTEM
   celldm(1)        = 1.889726
   ecutwfc          = 55.123963237125
   ecutrho          = 551.23963237125
   nosym            = .true.
   occupations      = 'smearing'
   degauss          = 0.01D0
   smearing         = 'fd'
   input_dft        = 'BEEF-vdW'
   edir             = 3
   emaxpos          = 0.95
   eopreg           = 0.05
   eamp             = 0.01
   ntyp             = 2
   nat              = 12
   ibrav            = 0
/
&ELECTRONS
   electron_maxstep = 500
   conv_thr         = 1e-05
   mixing_mode      = 'plain'
   mixing_beta      = 0.1
   mixing_ndim      = 10
/
&IONS
/
&CELL
/

ATOMIC_SPECIES
Ti 47.867 Ti.pbe-spn-rrkjus_psl.1.0.0.UPF
V 50.9415 V.pbe-spnl-rrkjus_psl.1.0.0.UPF

K_POINTS automatic
12 12 1  0 0 0

CELL_PARAMETERS alat
5.23570900000000 0.00000000000000 0.00000000000000
-2.61785500000000 5.17932100000000 0.00000000000000
0.00000000000000 0.00000000000000 24.51768200000000

ATOMIC_POSITIONS alat
Ti 0.0000000000 0.0000000000 10.0000000000 
Ti 2.6178546000 0.0000000000 10.0000000000 
V 1.3089273000 2.5896603000 10.0000000000 
V -1.3089273000 2.5896603000 10.0000000000 
Ti 2.6178546000 1.3231780000 12.2588411000 
Ti 0.0000000000 1.3231780000 12.2588411000 
V -1.3089273000 3.9128383000 12.2588411000 
V 1.3089273000 3.9128383000 12.2588411000 
Ti -0.0000221000 2.7207948000 14.5702601000 
Ti 2.6178295000 2.7207919000 14.5702548000 
V 3.9268384000 0.0176490000 14.3106793000 
V 1.3089860000 0.0176790000 14.3106618000 

