&CONTROL
   calculation      = 'scf'
   tstress          = .true.
   tprnfor          = .true.
   outdir           = './V2Cd2'
   prefix           = 'V2Cd2_beef'
   pseudo_dir       = '../pseudo'
   tefield          = .true.
   dipfield         = .true.
/
&SYSTEM
   celldm(1)        = 1.889726
   ecutwfc          = 55.123963237125
   ecutrho          = 551.23963237125
   nosym            = .true.
   occupations      = 'smearing'
   degauss          = 0.01D0
   smearing         = 'fd'
   input_dft        = 'BEEF-vdW'
   edir             = 3
   emaxpos          = 0.95
   eopreg           = 0.05
   eamp             = 0.01
   ntyp             = 2
   nat              = 12
   ibrav            = 0
/
&ELECTRONS
   electron_maxstep = 500
   conv_thr         = 1e-05
   mixing_mode      = 'plain'
   mixing_beta      = 0.1
   mixing_ndim      = 10
/
&IONS
/
&CELL
/

ATOMIC_SPECIES
V 50.9415 V.pbe-spnl-rrkjus_psl.1.0.0.UPF
Cd 112.414 Cd.pbe-n-rrkjus_psl.1.0.0.UPF

K_POINTS automatic
12 12 1  0 0 0

CELL_PARAMETERS alat
5.53512600000000 0.00000000000000 0.00000000000000
-2.76756300000000 5.25605800000000 0.00000000000000
0.00000000000000 0.00000000000000 24.70566400000000

ATOMIC_POSITIONS alat
V 0.0000000000 0.0000000000 10.0000000000 
V 2.7675629000 0.0000000000 10.0000000000 
Cd 1.3837814000 2.6280290000 10.0000000000 
Cd -1.3837814000 2.6280290000 10.0000000000 
V 2.7675629000 1.4572526000 12.3528322000 
V 0.0000000000 1.4572526000 12.3528322000 
Cd -1.3837814000 4.0852816000 12.3528322000 
Cd 1.3837814000 4.0852816000 12.3528322000 
V 0.0000406000 2.4429081000 14.3774646000 
V 2.7676073000 2.4431458000 14.3774345000 
Cd 1.3845741000 5.1956742000 15.0745688000 
Cd -1.3845525000 5.1956742000 15.0745849000 

