&CONTROL
   calculation      = 'scf'
   tstress          = .true.
   tprnfor          = .true.
   outdir           = './V2Cr2'
   prefix           = 'V2Cr2_beef'
   pseudo_dir       = '../pseudo'
   tefield          = .true.
   dipfield         = .true.
/
&SYSTEM
   celldm(1)        = 1.889726
   ecutwfc          = 55.123963237125
   ecutrho          = 551.23963237125
   nosym            = .true.
   occupations      = 'smearing'
   degauss          = 0.01D0
   smearing         = 'fd'
   input_dft        = 'BEEF-vdW'
   edir             = 3
   emaxpos          = 0.95
   eopreg           = 0.05
   eamp             = 0.01
   ntyp             = 2
   nat              = 12
   ibrav            = 0
/
&ELECTRONS
   electron_maxstep = 500
   conv_thr         = 1e-05
   mixing_mode      = 'plain'
   mixing_beta      = 0.1
   mixing_ndim      = 10
/
&IONS
/
&CELL
/

ATOMIC_SPECIES
V 50.9415 V.pbe-spnl-rrkjus_psl.1.0.0.UPF
Cr 51.9961 Cr.pbe-spn-rrkjus_psl.1.0.0.UPF

K_POINTS automatic
12 12 1  0 0 0

CELL_PARAMETERS alat
4.80916300000000 0.00000000000000 0.00000000000000
-2.40458100000000 5.00348400000000 0.00000000000000
0.00000000000000 0.00000000000000 24.21739600000000

ATOMIC_POSITIONS alat
V 0.0000000000 0.0000000000 10.0000000000 
V 2.4045814000 0.0000000000 10.0000000000 
Cr 1.2022907000 2.5017419000 10.0000000000 
Cr -1.2022907000 2.5017419000 10.0000000000 
V 2.4045814000 1.1555972000 12.1086979000 
V 0.0000000000 1.1555972000 12.1086979000 
Cr -1.2022907000 3.6573391000 12.1086979000 
Cr 1.2022907000 3.6573391000 12.1086979000 
V 0.0000177000 2.3318127000 14.2432257000 
V 2.4046028000 2.3318158000 14.2432176000 
Cr 1.2022697000 4.8033122000 14.1236664000 
Cr -1.2023105000 4.8033137000 14.1236186000 

