&CONTROL
   calculation      = 'scf'
   tstress          = .true.
   tprnfor          = .true.
   outdir           = './V2Hg2'
   prefix           = 'V2Hg2_beef'
   pseudo_dir       = '../pseudo'
   tefield          = .true.
   dipfield         = .true.
/
&SYSTEM
   celldm(1)        = 1.889726
   ecutwfc          = 55.123963237125
   ecutrho          = 551.23963237125
   nosym            = .true.
   occupations      = 'smearing'
   degauss          = 0.01D0
   smearing         = 'fd'
   input_dft        = 'BEEF-vdW'
   edir             = 3
   emaxpos          = 0.95
   eopreg           = 0.05
   eamp             = 0.01
   ntyp             = 2
   nat              = 12
   ibrav            = 0
/
&ELECTRONS
   electron_maxstep = 500
   conv_thr         = 1e-05
   mixing_mode      = 'plain'
   mixing_beta      = 0.1
   mixing_ndim      = 10
/
&IONS
/
&CELL
/

ATOMIC_SPECIES
V 50.9415 V.pbe-spnl-rrkjus_psl.1.0.0.UPF
Hg 200.592 Hg.pbe-n-rrkjus_psl.1.0.0.UPF

K_POINTS automatic
12 12 1  0 0 0

CELL_PARAMETERS alat
5.81750000000000 0.00000000000000 0.00000000000000
-2.90875000000000 5.05860000000000 0.00000000000000
0.00000000000000 0.00000000000000 24.75956300000000

ATOMIC_POSITIONS alat
V 0.0000000000 0.0000000000 10.0000000000 
V 2.9087499000 0.0000000000 10.0000000000 
Hg 1.4543749000 2.5293001000 10.0000000000 
Hg -1.4543749000 2.5293001000 10.0000000000 
V 2.9087499000 1.6725627000 12.3797815000 
V -0.0000000000 1.6725627000 12.3797815000 
Hg -1.4543749000 4.2018628000 12.3797815000 
Hg 1.4543749000 4.2018628000 12.3797815000 
V 0.0000116000 2.2195034000 14.1284308000 
V 2.9087609000 2.2195613000 14.1283886000 
Hg 1.4546255000 4.9516979000 15.3689109000 
Hg -1.4546217000 4.9516931000 15.3689172000 

