&CONTROL
   calculation      = 'scf'
   tstress          = .true.
   tprnfor          = .true.
   outdir           = './V2Mo2'
   prefix           = 'V2Mo2_beef'
   pseudo_dir       = '../pseudo'
   tefield          = .true.
   dipfield         = .true.
/
&SYSTEM
   celldm(1)        = 1.889726
   ecutwfc          = 55.123963237125
   ecutrho          = 551.23963237125
   nosym            = .true.
   occupations      = 'smearing'
   degauss          = 0.01D0
   smearing         = 'fd'
   input_dft        = 'BEEF-vdW'
   edir             = 3
   emaxpos          = 0.95
   eopreg           = 0.05
   eamp             = 0.01
   ntyp             = 2
   nat              = 12
   ibrav            = 0
/
&ELECTRONS
   electron_maxstep = 500
   conv_thr         = 1e-05
   mixing_mode      = 'plain'
   mixing_beta      = 0.1
   mixing_ndim      = 10
/
&IONS
/
&CELL
/

ATOMIC_SPECIES
V 50.9415 V.pbe-spnl-rrkjus_psl.1.0.0.UPF
Mo 95.95 Mo.pbe-spn-rrkjus_psl.1.0.0.UPF

K_POINTS automatic
12 12 1  0 0 0

CELL_PARAMETERS alat
5.13129200000000 0.00000000000000 0.00000000000000
-2.56564600000000 5.22949900000000 0.00000000000000
0.00000000000000 0.00000000000000 24.47130100000000

ATOMIC_POSITIONS alat
V 0.0000000000 0.0000000000 10.0000000000 
V 2.5656461000 0.0000000000 10.0000000000 
Mo 1.2828231000 2.6147494000 10.0000000000 
Mo -1.2828231000 2.6147494000 10.0000000000 
V 2.5656461000 1.2587325000 12.2356504000 
V -0.0000000000 1.2587325000 12.2356504000 
Mo -1.2828231000 3.8734819000 12.2356504000 
Mo 1.2828231000 3.8734819000 12.2356504000 
V 0.0000215000 2.4799342000 14.3845863000 
V 2.5656672000 2.4799334000 14.3845933000 
Mo 1.2825503000 5.1754371000 14.4744396000 
Mo -1.2830979000 5.1754368000 14.4744394000 

