&CONTROL
   calculation      = 'scf'
   tstress          = .true.
   tprnfor          = .true.
   outdir           = './V2Pt2'
   prefix           = 'V2Pt2_beef'
   pseudo_dir       = '../pseudo'
   tefield          = .true.
   dipfield         = .true.
/
&SYSTEM
   celldm(1)        = 1.889726
   ecutwfc          = 55.123963237125
   ecutrho          = 551.23963237125
   nosym            = .true.
   occupations      = 'smearing'
   degauss          = 0.01D0
   smearing         = 'fd'
   input_dft        = 'BEEF-vdW'
   edir             = 3
   emaxpos          = 0.95
   eopreg           = 0.05
   eamp             = 0.01
   ntyp             = 2
   nat              = 12
   ibrav            = 0
/
&ELECTRONS
   electron_maxstep = 500
   conv_thr         = 1e-05
   mixing_mode      = 'plain'
   mixing_beta      = 0.1
   mixing_ndim      = 10
/
&IONS
/
&CELL
/

ATOMIC_SPECIES
V 50.9415 V.pbe-spnl-rrkjus_psl.1.0.0.UPF
Pt 195.084 Pt.pbe-n-rrkjus_psl.1.0.0.UPF

K_POINTS automatic
12 12 1  0 0 0

CELL_PARAMETERS alat
5.41754800000000 0.00000000000000 0.00000000000000
-2.70877400000000 4.76003400000000 0.00000000000000
0.00000000000000 0.00000000000000 24.45480500000000

ATOMIC_POSITIONS alat
V 0.0000000000 0.0000000000 10.0000000000 
V 2.7087742000 0.0000000000 10.0000000000 
Pt 1.3543871000 2.3800170000 10.0000000000 
Pt -1.3543871000 2.3800170000 10.0000000000 
V 2.7087742000 1.5414716000 12.2274027000 
V -0.0000000000 1.5414716000 12.2274027000 
Pt -1.3543871000 3.9214886000 12.2274027000 
Pt 1.3543871000 3.9214886000 12.2274027000 
V -0.0000000000 3.1507941000 14.3521920000 
V 2.7087742000 3.1508233000 14.3521791000 
Pt 4.0632572000 0.8787669000 14.4264858000 
Pt 1.3542907000 0.8787671000 14.4264858000 

