&CONTROL
   calculation      = 'scf'
   tstress          = .true.
   tprnfor          = .true.
   outdir           = './V2Re2'
   prefix           = 'V2Re2_beef'
   pseudo_dir       = '../pseudo'
   tefield          = .true.
   dipfield         = .true.
/
&SYSTEM
   celldm(1)        = 1.889726
   ecutwfc          = 55.123963237125
   ecutrho          = 551.23963237125
   nosym            = .true.
   occupations      = 'smearing'
   degauss          = 0.01D0
   smearing         = 'fd'
   input_dft        = 'BEEF-vdW'
   edir             = 3
   emaxpos          = 0.95
   eopreg           = 0.05
   eamp             = 0.01
   ntyp             = 2
   nat              = 12
   ibrav            = 0
/
&ELECTRONS
   electron_maxstep = 500
   conv_thr         = 1e-05
   mixing_mode      = 'plain'
   mixing_beta      = 0.1
   mixing_ndim      = 10
/
&IONS
/
&CELL
/

ATOMIC_SPECIES
V 50.9415 V.pbe-spnl-rrkjus_psl.1.0.0.UPF
Re 186.207 Re.pbe-spn-rrkjus_psl.1.0.0.UPF

K_POINTS automatic
12 12 1  0 0 0

CELL_PARAMETERS alat
5.25970700000000 0.00000000000000 0.00000000000000
1.75843100000000 4.95705900000000 0.00000000000000
0.00000000000000 0.00000000000000 24.29611300000000

ATOMIC_POSITIONS alat
V 0.0000000000 0.0000000000 10.0000000000 
V 3.5090691000 2.4785295000 10.0000000000 
Re 2.6298534000 0.0000000000 10.0000000000 
Re 0.8792157000 2.4785295000 10.0000000000 
V 5.2597067000 3.7150418000 12.1480563000 
V 1.7506377000 1.2365123000 12.1480563000 
Re 2.6298534000 3.7150418000 12.1480563000 
Re 4.3804910000 1.2365123000 12.1480563000 
V 3.5031840000 2.4743720000 14.2647785000 
V 7.0122542000 4.9529014000 14.2647855000 
Re 6.1330808000 2.4744119000 14.1942575000 
Re 4.3824561000 4.9529404000 14.1942576000 

