&CONTROL
   calculation      = 'scf'
   tstress          = .true.
   tprnfor          = .true.
   outdir           = './V2Zr2'
   prefix           = 'V2Zr2_beef'
   pseudo_dir       = '../pseudo'
   tefield          = .true.
   dipfield         = .true.
/
&SYSTEM
   celldm(1)        = 1.889726
   ecutwfc          = 55.123963237125
   ecutrho          = 551.23963237125
   nosym            = .true.
   occupations      = 'smearing'
   degauss          = 0.01D0
   smearing         = 'fd'
   input_dft        = 'BEEF-vdW'
   edir             = 3
   emaxpos          = 0.95
   eopreg           = 0.05
   eamp             = 0.01
   ntyp             = 2
   nat              = 12
   ibrav            = 0
/
&ELECTRONS
   electron_maxstep = 500
   conv_thr         = 1e-05
   mixing_mode      = 'plain'
   mixing_beta      = 0.1
   mixing_ndim      = 10
/
&IONS
/
&CELL
/

ATOMIC_SPECIES
V 50.9415 V.pbe-spnl-rrkjus_psl.1.0.0.UPF
Zr 91.224 Zr.pbe-spn-rrkjus_psl.1.0.0.UPF

K_POINTS automatic
12 12 1  0 0 0

CELL_PARAMETERS alat
5.73938400000000 0.00000000000000 0.00000000000000
1.91310300000000 5.41115200000000 0.00000000000000
0.00000000000000 0.00000000000000 24.68618000000000

ATOMIC_POSITIONS alat
V 0.0000000000 0.0000000000 10.0000000000 
V 3.8262437000 2.7055759000 10.0000000000 
Zr 2.8696920000 0.0000000000 10.0000000000 
Zr 0.9565517000 2.7055759000 10.0000000000 
V 5.7393840000 4.0583768000 12.3430899000 
V 1.9131402000 1.3528009000 12.3430899000 
Zr 2.8696920000 4.0583768000 12.3430899000 
Zr 4.7828322000 1.3528009000 12.3430899000 
V 3.8262576000 2.7055814000 14.4615955000 
V 0.0000543000 0.0000429000 14.4616414000 
Zr 0.9566114000 2.7055496000 14.6654180000 
Zr 2.8696854000 0.0000636000 14.6654174000 

