&CONTROL
   calculation      = 'scf'
   tstress          = .true.
   tprnfor          = .true.
   outdir           = './W2Au2'
   prefix           = 'W2Au2_beef'
   pseudo_dir       = '../pseudo'
   tefield          = .true.
   dipfield         = .true.
/
&SYSTEM
   celldm(1)        = 1.889726
   ecutwfc          = 55.123963237125
   ecutrho          = 551.23963237125
   nosym            = .true.
   occupations      = 'smearing'
   degauss          = 0.01D0
   smearing         = 'fd'
   input_dft        = 'BEEF-vdW'
   edir             = 3
   emaxpos          = 0.95
   eopreg           = 0.05
   eamp             = 0.01
   ntyp             = 2
   nat              = 12
   ibrav            = 0
/
&ELECTRONS
   electron_maxstep = 500
   conv_thr         = 1e-05
   mixing_mode      = 'plain'
   mixing_beta      = 0.1
   mixing_ndim      = 10
/
&IONS
/
&CELL
/

ATOMIC_SPECIES
W 183.84 W.pbe-spn-rrkjus_psl.0.2.3.UPF
Au 196.966569 Au.pbe-n-rrkjus_psl.1.0.0.UPF

K_POINTS automatic
12 12 1  0 0 0

CELL_PARAMETERS alat
5.53421300000000 0.00000000000000 0.00000000000000
-2.76710600000000 5.18745000000000 0.00000000000000
0.00000000000000 0.00000000000000 24.68110500000000

ATOMIC_POSITIONS alat
W 0.0000000000 0.0000000000 10.0000000000 
W 2.7671064000 0.0000000000 10.0000000000 
Au 1.3835532000 2.5937249000 10.0000000000 
Au -1.3835532000 2.5937249000 10.0000000000 
W 2.7671064000 1.4760389000 12.3405527000 
W -0.0000000000 1.4760389000 12.3405527000 
Au -1.3835532000 4.0697638000 12.3405527000 
Au 1.3835532000 4.0697638000 12.3405527000 
W 0.0000436000 2.9126263000 14.5472193000 
W 2.7671428000 2.9126251000 14.5472163000 
Au 4.1506172000 0.3940833000 14.8170369000 
Au 1.3835047000 0.3940835000 14.8170297000 

