&CONTROL
   calculation      = 'scf'
   tstress          = .true.
   tprnfor          = .true.
   outdir           = './W2Re2'
   prefix           = 'W2Re2_beef'
   pseudo_dir       = '../pseudo'
   tefield          = .true.
   dipfield         = .true.
/
&SYSTEM
   celldm(1)        = 1.889726
   ecutwfc          = 55.123963237125
   ecutrho          = 551.23963237125
   nosym            = .true.
   occupations      = 'smearing'
   degauss          = 0.01D0
   smearing         = 'fd'
   input_dft        = 'BEEF-vdW'
   edir             = 3
   emaxpos          = 0.95
   eopreg           = 0.05
   eamp             = 0.01
   ntyp             = 2
   nat              = 12
   ibrav            = 0
/
&ELECTRONS
   electron_maxstep = 500
   conv_thr         = 1e-05
   mixing_mode      = 'plain'
   mixing_beta      = 0.1
   mixing_ndim      = 10
/
&IONS
/
&CELL
/

ATOMIC_SPECIES
W 183.84 W.pbe-spn-rrkjus_psl.0.2.3.UPF
Re 186.207 Re.pbe-spn-rrkjus_psl.1.0.0.UPF

K_POINTS automatic
12 12 1  0 0 0

CELL_PARAMETERS alat
5.59866500000000 0.00000000000000 0.00000000000000
2.74378100000000 4.88023700000000 0.00000000000000
0.00000000000000 0.00000000000000 24.58558200000000

ATOMIC_POSITIONS alat
W 0.0000000000 0.0000000000 10.0000000000 
W 4.1712234000 2.4401186000 10.0000000000 
Re 2.7993326000 0.0000000000 10.0000000000 
Re 1.3718907000 2.4401186000 10.0000000000 
W 5.5986653000 3.2751561000 12.2927912000 
W 1.4274419000 0.8350374000 12.2927912000 
Re 2.7993326000 3.2751561000 12.2927912000 
Re 4.2267745000 0.8350374000 12.2927912000 
W 2.8634858000 1.6751083000 14.5185559000 
W 7.0347032000 4.1152238000 14.5185548000 
Re 5.6491309000 1.6670944000 14.5165612000 
Re 4.2216843000 4.1072120000 14.5165597000 

