&CONTROL
   calculation      = 'scf'
   tstress          = .true.
   tprnfor          = .true.
   outdir           = './Zn2Pd2'
   prefix           = 'Zn2Pd2_beef'
   pseudo_dir       = '../pseudo'
   tefield          = .true.
   dipfield         = .true.
/
&SYSTEM
   celldm(1)        = 1.889726
   ecutwfc          = 55.123963237125
   ecutrho          = 551.23963237125
   nosym            = .true.
   occupations      = 'smearing'
   degauss          = 0.01D0
   smearing         = 'fd'
   input_dft        = 'BEEF-vdW'
   edir             = 3
   emaxpos          = 0.95
   eopreg           = 0.05
   eamp             = 0.01
   ntyp             = 2
   nat              = 12
   ibrav            = 0
/
&ELECTRONS
   electron_maxstep = 500
   conv_thr         = 1e-05
   mixing_mode      = 'plain'
   mixing_beta      = 0.1
   mixing_ndim      = 10
/
&IONS
/
&CELL
/

ATOMIC_SPECIES
Zn 65.38 Zn.pbe-spn-rrkjus_psl.1.0.0.UPF
Pd 106.42 Pd.pbe-n-rrkjus_psl.1.0.0.UPF

K_POINTS automatic
12 12 1  0 0 0

CELL_PARAMETERS alat
5.38518100000000 0.00000000000000 0.00000000000000
2.18219100000000 4.92323200000000 0.00000000000000
0.00000000000000 0.00000000000000 24.46048200000000

ATOMIC_POSITIONS alat
Zn 0.0000000000 0.0000000000 10.0000000000 
Zn 3.7836860000 2.4616162000 10.0000000000 
Pd 2.6925905000 0.0000000000 10.0000000000 
Pd 1.0910955000 2.4616162000 10.0000000000 
Zn 5.3851810000 3.5035277000 12.2302409000 
Zn 1.6014950000 1.0419115000 12.2302409000 
Pd 2.6925905000 3.5035277000 12.2302409000 
Pd 4.2940855000 1.0419115000 12.2302409000 
Zn 3.3600708000 2.1860020000 14.5579810000 
Zn 7.1437536000 4.6476535000 14.5579896000 
Pd 6.0600049000 2.1907993000 14.3738782000 
Pd 4.4584974000 4.6524062000 14.3738787000 

