&CONTROL
   calculation      = 'scf'
   tstress          = .true.
   tprnfor          = .true.
   outdir           = './Fe2Y2'
   prefix           = 'Fe2Y2_beef'
   pseudo_dir       = '../pseudo'
   tefield          = .true.
   dipfield         = .true.
/
&SYSTEM
   celldm(1)        = 1.889726
   ecutwfc          = 55.123963237125
   ecutrho          = 551.23963237125
   nosym            = .true.
   occupations      = 'smearing'
   degauss          = 0.01D0
   smearing         = 'fd'
   input_dft        = 'BEEF-vdW'
   edir             = 3
   emaxpos          = 0.95
   eopreg           = 0.05
   eamp             = 0.01
   nspin            = 2
   starting_magnetization(1) = 0.375
   starting_magnetization(2) = 0.0
   ntyp             = 2
   nat              = 12
   ibrav            = 0
/
&ELECTRONS
   electron_maxstep = 500
   conv_thr         = 1e-05
   mixing_mode      = 'plain'
   mixing_beta      = 0.1
   mixing_ndim      = 10
/
&IONS
/
&CELL
/

ATOMIC_SPECIES
Fe  55.845 Fe.pbe-n-rrkjus_psl.1.0.0.UPF
Y  88.90584 Y.pbe-spn-rrkjus_psl.1.0.0.UPF

K_POINTS automatic
12 12 1  0 0 0

CELL_PARAMETERS alat
5.99328300000000 0.00000000000000 0.00000000000000
1.92756600000000 5.67485100000000 0.00000000000000
0.00000000000000 0.00000000000000 24.87023300000000

ATOMIC_POSITIONS alat
Fe  0.0000000000 0.0000000000 10.0000000000
Fe  3.9604244000 2.8374253000 10.0000000000
Y  2.9966414000 0.0000000000 10.0000000000
Y  0.9637830000 2.8374253000 10.0000000000
Fe  5.9932829000 4.2938561000 12.4351163000
Fe  2.0328585000 1.4564308000 12.4351163000
Y  2.9966414000 4.2938561000 12.4351163000
Y  5.0294999000 1.4564308000 12.4351163000
Fe  4.0647600000 2.9122023000 14.6197058000
Fe  0.1046495000 0.0749495000 14.6195862000
Y  1.0421701000 2.8936499000 14.8697765000
Y  3.0751073000 0.0561510000 14.8697771000

