&CONTROL
   calculation      = 'scf'
   tstress          = .true.
   tprnfor          = .true.
   outdir           = './Fe2Zn2'
   prefix           = 'Fe2Zn2_beef'
   pseudo_dir       = '../pseudo'
   tefield          = .true.
   dipfield         = .true.
/
&SYSTEM
   celldm(1)        = 1.889726
   ecutwfc          = 55.123963237125
   ecutrho          = 551.23963237125
   nosym            = .true.
   occupations      = 'smearing'
   degauss          = 0.01D0
   smearing         = 'fd'
   input_dft        = 'BEEF-vdW'
   edir             = 3
   emaxpos          = 0.95
   eopreg           = 0.05
   eamp             = 0.01
   nspin            = 2
   starting_magnetization(1) = 0.375
   starting_magnetization(2) = 0.0
   ntyp             = 2
   nat              = 12
   ibrav            = 0
/
&ELECTRONS
   electron_maxstep = 500
   conv_thr         = 1e-05
   mixing_mode      = 'plain'
   mixing_beta      = 0.1
   mixing_ndim      = 10
/
&IONS
/
&CELL
/

ATOMIC_SPECIES
Fe  55.845 Fe.pbe-n-rrkjus_psl.1.0.0.UPF
Zn  65.38 Zn.pbe-spn-rrkjus_psl.1.0.0.UPF

K_POINTS automatic
12 12 1  0 0 0

CELL_PARAMETERS alat
5.15268300000000 0.00000000000000 0.00000000000000
-2.57634200000000 4.67202500000000 0.00000000000000
0.00000000000000 0.00000000000000 24.29844300000000

ATOMIC_POSITIONS alat
Fe  0.0000000000 0.0000000000 10.0000000000
Fe  2.5763417000 0.0000000000 10.0000000000
Zn  1.2881709000 2.3360123000 10.0000000000
Zn  -1.2881709000 2.3360123000 10.0000000000
Fe  2.5763417000 1.4206981000 12.1492216000
Fe  -0.0000000000 1.4206981000 12.1492216000
Zn  -1.2881709000 3.7567104000 12.1492216000
Zn  1.2881709000 3.7567104000 12.1492216000
Fe  0.0000683000 2.7874526000 14.2103150000
Fe  2.5764098000 2.7872061000 14.2103118000
Zn  3.8641031000 0.4828945000 14.4795225000
Zn  1.2884767000 0.4828957000 14.4795229000

