&PROJWFC
prefix = 'Cr2Ni2_beef',
outdir = './Cr2Ni2',
degauss = 0.001,
DeltaE = 0.001,
filpdos = 'Cr2Ni2.pdos.out',
filproj = 'Cr2Ni2.proj.out',
/
