&INPUTPP
prefix = 'Cr2Ni2_beef',
outdir = './Cr2Ni2',
filplot = 'Cr2Ni2-wf.dat',
plot_num = 11
/
