&DOS
prefix = 'Cr2Ni2_beef',
outdir = './Cr2Ni2',
degauss = 0.001,
DeltaE = 0.001,
fildos = 'Cr2Ni2.dos.out',
/
