&DOS
prefix = 'Ni2Ag2_beef',
outdir = './Ni2Ag2',
degauss = 0.001,
DeltaE = 0.001,
fildos = 'Ni2Ag2.dos.out',
/
