&PROJWFC
prefix = 'Ni2Au2_beef',
outdir = './Ni2Au2',
degauss = 0.001,
DeltaE = 0.001,
filpdos = 'Ni2Au2.pdos.out',
filproj = 'Ni2Au2.proj.out',
/
