&INPUTPP
prefix = 'Ni2Ag2_beef',
outdir = './Ni2Ag2',
filplot = 'Ni2Ag2-wf.dat',
plot_num = 11
/
