&DOS
prefix = 'Ni2Au2_beef',
outdir = './Ni2Au2',
degauss = 0.001,
DeltaE = 0.001,
fildos = 'Ni2Au2.dos.out',
/
