&INPUTPP
prefix = 'Ni2Au2_beef',
outdir = './Ni2Au2',
filplot = 'Ni2Au2-wf.dat',
plot_num = 11
/
