&PROJWFC
prefix = 'Ni2Ag2_beef',
outdir = './Ni2Ag2',
degauss = 0.001,
DeltaE = 0.001,
filpdos = 'Ni2Ag2.pdos.out',
filproj = 'Ni2Ag2.proj.out',
/
