&INPUTPP
prefix = 'Ni2Cu2_beef',
outdir = './Ni2Cu2',
filplot = 'Ni2Cu2-wf.dat',
plot_num = 11
/
