&INPUTPP
prefix = 'Ni2Cd2_beef',
outdir = './Ni2Cd2',
filplot = 'Ni2Cd2-wf.dat',
plot_num = 11
/
