&DOS
prefix = 'Ni2Cd2_beef',
outdir = './Ni2Cd2',
degauss = 0.001,
DeltaE = 0.001,
fildos = 'Ni2Cd2.dos.out',
/
