&PROJWFC
prefix = 'Ni2Cd2_beef',
outdir = './Ni2Cd2',
degauss = 0.001,
DeltaE = 0.001,
filpdos = 'Ni2Cd2.pdos.out',
filproj = 'Ni2Cd2.proj.out',
/
