&PROJWFC
prefix = 'Ni2Cu2_beef',
outdir = './Ni2Cu2',
degauss = 0.001,
DeltaE = 0.001,
filpdos = 'Ni2Cu2.pdos.out',
filproj = 'Ni2Cu2.proj.out',
/
