&DOS
prefix = 'Ni2Cu2_beef',
outdir = './Ni2Cu2',
degauss = 0.001,
DeltaE = 0.001,
fildos = 'Ni2Cu2.dos.out',
/
