&PROJWFC
prefix = 'Ni2Hf2_beef',
outdir = './Ni2Hf2',
degauss = 0.001,
DeltaE = 0.001,
filpdos = 'Ni2Hf2.pdos.out',
filproj = 'Ni2Hf2.proj.out',
/
