&INPUTPP
prefix = 'Ni2Hg2_beef',
outdir = './Ni2Hg2',
filplot = 'Ni2Hg2-wf.dat',
plot_num = 11
/
