&DOS
prefix = 'Ni2Hg2_beef',
outdir = './Ni2Hg2',
degauss = 0.001,
DeltaE = 0.001,
fildos = 'Ni2Hg2.dos.out',
/
