&DOS
prefix = 'Ni2Hf2_beef',
outdir = './Ni2Hf2',
degauss = 0.001,
DeltaE = 0.001,
fildos = 'Ni2Hf2.dos.out',
/
