&PROJWFC
prefix = 'Ni2Hg2_beef',
outdir = './Ni2Hg2',
degauss = 0.001,
DeltaE = 0.001,
filpdos = 'Ni2Hg2.pdos.out',
filproj = 'Ni2Hg2.proj.out',
/
