&INPUTPP
prefix = 'Ni2Hf2_beef',
outdir = './Ni2Hf2',
filplot = 'Ni2Hf2-wf.dat',
plot_num = 11
/
