&PROJWFC
prefix = 'Ni2Ir2_beef',
outdir = './Ni2Ir2',
degauss = 0.001,
DeltaE = 0.001,
filpdos = 'Ni2Ir2.pdos.out',
filproj = 'Ni2Ir2.proj.out',
/
