&DOS
prefix = 'Ni2Ir2_beef',
outdir = './Ni2Ir2',
degauss = 0.001,
DeltaE = 0.001,
fildos = 'Ni2Ir2.dos.out',
/
