&INPUTPP
prefix = 'Ni2Ir2_beef',
outdir = './Ni2Ir2',
filplot = 'Ni2Ir2-wf.dat',
plot_num = 11
/
