&PROJWFC
prefix = 'Ni2La2_beef',
outdir = './Ni2La2',
degauss = 0.001,
DeltaE = 0.001,
filpdos = 'Ni2La2.pdos.out',
filproj = 'Ni2La2.proj.out',
/
