&DOS
prefix = 'Ni2La2_beef',
outdir = './Ni2La2',
degauss = 0.001,
DeltaE = 0.001,
fildos = 'Ni2La2.dos.out',
/
