&INPUTPP
prefix = 'Ni2La2_beef',
outdir = './Ni2La2',
filplot = 'Ni2La2-wf.dat',
plot_num = 11
/
