&INPUTPP
prefix = 'Ni2Mo2_beef',
outdir = './Ni2Mo2',
filplot = 'Ni2Mo2-wf.dat',
plot_num = 11
/
