&DOS
prefix = 'Ni2Mo2_beef',
outdir = './Ni2Mo2',
degauss = 0.001,
DeltaE = 0.001,
fildos = 'Ni2Mo2.dos.out',
/
