&PROJWFC
prefix = 'Ni2Mo2_beef',
outdir = './Ni2Mo2',
degauss = 0.001,
DeltaE = 0.001,
filpdos = 'Ni2Mo2.pdos.out',
filproj = 'Ni2Mo2.proj.out',
/
