&DOS
prefix = 'Ni2Nb2_beef',
outdir = './Ni2Nb2',
degauss = 0.001,
DeltaE = 0.001,
fildos = 'Ni2Nb2.dos.out',
/
