&PROJWFC
prefix = 'Ni2Nb2_beef',
outdir = './Ni2Nb2',
degauss = 0.001,
DeltaE = 0.001,
filpdos = 'Ni2Nb2.pdos.out',
filproj = 'Ni2Nb2.proj.out',
/
