&INPUTPP
prefix = 'Ni2Nb2_beef',
outdir = './Ni2Nb2',
filplot = 'Ni2Nb2-wf.dat',
plot_num = 11
/
