&DOS
prefix = 'Ni2Os2_beef',
outdir = './Ni2Os2',
degauss = 0.001,
DeltaE = 0.001,
fildos = 'Ni2Os2.dos.out',
/
