&INPUTPP
prefix = 'Ni2Os2_beef',
outdir = './Ni2Os2',
filplot = 'Ni2Os2-wf.dat',
plot_num = 11
/
