&PROJWFC
prefix = 'Ni2Os2_beef',
outdir = './Ni2Os2',
degauss = 0.001,
DeltaE = 0.001,
filpdos = 'Ni2Os2.pdos.out',
filproj = 'Ni2Os2.proj.out',
/
