&INPUTPP
prefix = 'Ni2Pd2_beef',
outdir = './Ni2Pd2',
filplot = 'Ni2Pd2-wf.dat',
plot_num = 11
/
