&DOS
prefix = 'Ni2Pt2_beef',
outdir = './Ni2Pt2',
degauss = 0.001,
DeltaE = 0.001,
fildos = 'Ni2Pt2.dos.out',
/
