&PROJWFC
prefix = 'Ni2Pt2_beef',
outdir = './Ni2Pt2',
degauss = 0.001,
DeltaE = 0.001,
filpdos = 'Ni2Pt2.pdos.out',
filproj = 'Ni2Pt2.proj.out',
/
