&INPUTPP
prefix = 'Ni2Pt2_beef',
outdir = './Ni2Pt2',
filplot = 'Ni2Pt2-wf.dat',
plot_num = 11
/
