&PROJWFC
prefix = 'Ni2Pd2_beef',
outdir = './Ni2Pd2',
degauss = 0.001,
DeltaE = 0.001,
filpdos = 'Ni2Pd2.pdos.out',
filproj = 'Ni2Pd2.proj.out',
/
