&DOS
prefix = 'Ni2Pd2_beef',
outdir = './Ni2Pd2',
degauss = 0.001,
DeltaE = 0.001,
fildos = 'Ni2Pd2.dos.out',
/
