&PROJWFC
prefix = 'Ni2Rh2_beef',
outdir = './Ni2Rh2',
degauss = 0.001,
DeltaE = 0.001,
filpdos = 'Ni2Rh2.pdos.out',
filproj = 'Ni2Rh2.proj.out',
/
