&INPUTPP
prefix = 'Ni2Rh2_beef',
outdir = './Ni2Rh2',
filplot = 'Ni2Rh2-wf.dat',
plot_num = 11
/
