&DOS
prefix = 'Ni2Re2_beef',
outdir = './Ni2Re2',
degauss = 0.001,
DeltaE = 0.001,
fildos = 'Ni2Re2.dos.out',
/
