&DOS
prefix = 'Ni2Rh2_beef',
outdir = './Ni2Rh2',
degauss = 0.001,
DeltaE = 0.001,
fildos = 'Ni2Rh2.dos.out',
/
