&INPUTPP
prefix = 'Ni2Ru2_beef',
outdir = './Ni2Ru2',
filplot = 'Ni2Ru2-wf.dat',
plot_num = 11
/
