&PROJWFC
prefix = 'Ni2Re2_beef',
outdir = './Ni2Re2',
degauss = 0.001,
DeltaE = 0.001,
filpdos = 'Ni2Re2.pdos.out',
filproj = 'Ni2Re2.proj.out',
/
