&DOS
prefix = 'Ni2Ru2_beef',
outdir = './Ni2Ru2',
degauss = 0.001,
DeltaE = 0.001,
fildos = 'Ni2Ru2.dos.out',
/
