&PROJWFC
prefix = 'Ni2Ru2_beef',
outdir = './Ni2Ru2',
degauss = 0.001,
DeltaE = 0.001,
filpdos = 'Ni2Ru2.pdos.out',
filproj = 'Ni2Ru2.proj.out',
/
