&INPUTPP
prefix = 'Ni2Re2_beef',
outdir = './Ni2Re2',
filplot = 'Ni2Re2-wf.dat',
plot_num = 11
/
