&DOS
prefix = 'Ni2Ta2_beef',
outdir = './Ni2Ta2',
degauss = 0.001,
DeltaE = 0.001,
fildos = 'Ni2Ta2.dos.out',
/
