&INPUTPP
prefix = 'Ni2Ta2_beef',
outdir = './Ni2Ta2',
filplot = 'Ni2Ta2-wf.dat',
plot_num = 11
/
