&PROJWFC
prefix = 'Ni2Ta2_beef',
outdir = './Ni2Ta2',
degauss = 0.001,
DeltaE = 0.001,
filpdos = 'Ni2Ta2.pdos.out',
filproj = 'Ni2Ta2.proj.out',
/
