&INPUTPP
prefix = 'Ni2W2_beef',
outdir = './Ni2W2',
filplot = 'Ni2W2-wf.dat',
plot_num = 11
/
