&PROJWFC
prefix = 'Ni2W2_beef',
outdir = './Ni2W2',
degauss = 0.001,
DeltaE = 0.001,
filpdos = 'Ni2W2.pdos.out',
filproj = 'Ni2W2.proj.out',
/
