&DOS
prefix = 'Ni2W2_beef',
outdir = './Ni2W2',
degauss = 0.001,
DeltaE = 0.001,
fildos = 'Ni2W2.dos.out',
/
