&INPUTPP
prefix = 'Ni2Y2_beef',
outdir = './Ni2Y2',
filplot = 'Ni2Y2-wf.dat',
plot_num = 11
/
