&DOS
prefix = 'Ni2Y2_beef',
outdir = './Ni2Y2',
degauss = 0.001,
DeltaE = 0.001,
fildos = 'Ni2Y2.dos.out',
/
