&PROJWFC
prefix = 'Ni2Y2_beef',
outdir = './Ni2Y2',
degauss = 0.001,
DeltaE = 0.001,
filpdos = 'Ni2Y2.pdos.out',
filproj = 'Ni2Y2.proj.out',
/
