&DOS
prefix = 'Ni2Zr2_beef',
outdir = './Ni2Zr2',
degauss = 0.001,
DeltaE = 0.001,
fildos = 'Ni2Zr2.dos.out',
/
