&PROJWFC
prefix = 'Ni2Zr2_beef',
outdir = './Ni2Zr2',
degauss = 0.001,
DeltaE = 0.001,
filpdos = 'Ni2Zr2.pdos.out',
filproj = 'Ni2Zr2.proj.out',
/
