&INPUTPP
prefix = 'Ni2Zr2_beef',
outdir = './Ni2Zr2',
filplot = 'Ni2Zr2-wf.dat',
plot_num = 11
/
