&CONTROL
   calculation      = 'scf'
   tstress          = .true.
   tprnfor          = .true.
   outdir           = './Fe2Ta2'
   prefix           = 'Fe2Ta2_beef'
   pseudo_dir       = '../pseudo'
   tefield          = .true.
   dipfield         = .true.
/
&SYSTEM
   celldm(1)        = 1.889726
   ecutwfc          = 55.123963237125
   ecutrho          = 551.23963237125
   nosym            = .true.
   occupations      = 'smearing'
   degauss          = 0.01D0
   smearing         = 'fd'
   input_dft        = 'BEEF-vdW'
   edir             = 3
   emaxpos          = 0.95
   eopreg           = 0.05
   eamp             = 0.01
   nspin            = 2
   starting_magnetization(1) = 0.375
   starting_magnetization(2) = 0.0
   ntyp             = 2
   nat              = 12
   ibrav            = 0
/
&ELECTRONS
   electron_maxstep = 500
   conv_thr         = 1e-05
   mixing_mode      = 'plain'
   mixing_beta      = 0.1
   mixing_ndim      = 10
/
&IONS
/
&CELL
/

ATOMIC_SPECIES
Fe  55.845 Fe.pbe-n-rrkjus_psl.1.0.0.UPF
Ta  180.94788 Ta.pbe-spfn-rrkjus_psl.1.0.0.UPF

K_POINTS automatic
12 12 1  0 0 0

CELL_PARAMETERS alat
5.31640500000000 0.00000000000000 0.00000000000000
1.76438900000000 5.01508700000000 0.00000000000000
0.00000000000000 0.00000000000000 24.33843100000000

ATOMIC_POSITIONS alat
Fe  0.0000000000 0.0000000000 10.0000000000
Fe  3.5403972000 2.5075436000 10.0000000000
Ta  2.6582027000 0.0000000000 10.0000000000
Ta  0.8821945000 2.5075436000 10.0000000000
Fe  5.3164055000 3.7654301000 12.1692156000
Fe  1.7760082000 1.2578865000 12.1692156000
Ta  2.6582027000 3.7654301000 12.1692156000
Ta  4.4342110000 1.2578865000 12.1692156000
Fe  3.5490936000 2.5136679000 14.1302038000
Fe  0.0087265000 0.0062156000 14.1302195000
Ta  0.8898485000 2.5129754000 14.3378558000
Ta  2.6658527000 0.0054067000 14.3378550000

