&PROJWFC
prefix = 'Au2Hg2_beef',
outdir = './Au2Hg2',
degauss = 0.001,
DeltaE = 0.001,
filpdos = 'Au2Hg2.pdos.out',
filproj = 'Au2Hg2.proj.out',
/
