&DOS
prefix = 'Au2Hg2_beef',
outdir = './Au2Hg2',
degauss = 0.001,
DeltaE = 0.001,
fildos = 'Au2Hg2.dos.out',
/
