&INPUTPP
prefix = 'Au2Hg2_beef',
outdir = './Au2Hg2',
filplot = 'Au2Hg2-wf.dat',
plot_num = 11
/
