&PROJWFC
prefix = 'Cd2Hg2_beef',
outdir = './Cd2Hg2',
degauss = 0.001,
DeltaE = 0.001,
filpdos = 'Cd2Hg2.pdos.out',
filproj = 'Cd2Hg2.proj.out',
/
