&DOS
prefix = 'Cd2Os2_beef',
outdir = './Cd2Os2',
degauss = 0.001,
DeltaE = 0.001,
fildos = 'Cd2Os2.dos.out',
/
