&PROJWFC
prefix = 'Cd2Os2_beef',
outdir = './Cd2Os2',
degauss = 0.001,
DeltaE = 0.001,
filpdos = 'Cd2Os2.pdos.out',
filproj = 'Cd2Os2.proj.out',
/
