&DOS
prefix = 'Cd2Y2_beef',
outdir = './Cd2Y2',
degauss = 0.001,
DeltaE = 0.001,
fildos = 'Cd2Y2.dos.out',
/
