&INPUTPP
prefix = 'Cd2Y2_beef',
outdir = './Cd2Y2',
filplot = 'Cd2Y2-wf.dat',
plot_num = 11
/
