&DOS
prefix = 'Cr2Hg2_beef',
outdir = './Cr2Hg2',
degauss = 0.001,
DeltaE = 0.001,
fildos = 'Cr2Hg2.dos.out',
/
