&INPUTPP
prefix = 'Cr2Hg2_beef',
outdir = './Cr2Hg2',
filplot = 'Cr2Hg2-wf.dat',
plot_num = 11
/
