&PROJWFC
prefix = 'Cr2Nb2_beef',
outdir = './Cr2Nb2',
degauss = 0.001,
DeltaE = 0.001,
filpdos = 'Cr2Nb2.pdos.out',
filproj = 'Cr2Nb2.proj.out',
/
