&DOS
prefix = 'Cr2Os2_beef',
outdir = './Cr2Os2',
degauss = 0.001,
DeltaE = 0.001,
fildos = 'Cr2Os2.dos.out',
/
