&INPUTPP
prefix = 'Cr2Os2_beef',
outdir = './Cr2Os2',
filplot = 'Cr2Os2-wf.dat',
plot_num = 11
/
