&DOS
prefix = 'Mo2Hg2_beef',
outdir = './Mo2Hg2',
degauss = 0.001,
DeltaE = 0.001,
fildos = 'Mo2Hg2.dos.out',
/
