&INPUTPP
prefix = 'Mo2Os2_beef',
outdir = './Mo2Os2',
filplot = 'Mo2Os2-wf.dat',
plot_num = 11
/
