&DOS
prefix = 'Mo2Y2_beef',
outdir = './Mo2Y2',
degauss = 0.001,
DeltaE = 0.001,
fildos = 'Mo2Y2.dos.out',
/
