&INPUTPP
prefix = 'Mo2Y2_beef',
outdir = './Mo2Y2',
filplot = 'Mo2Y2-wf.dat',
plot_num = 11
/
