&PROJWFC
prefix = 'Mo2Y2_beef',
outdir = './Mo2Y2',
degauss = 0.001,
DeltaE = 0.001,
filpdos = 'Mo2Y2.pdos.out',
filproj = 'Mo2Y2.proj.out',
/
