&INPUTPP
prefix = 'Nb2Au2_beef',
outdir = './Nb2Au2',
filplot = 'Nb2Au2-wf.dat',
plot_num = 11
/
