&PROJWFC
prefix = 'Nb2Au2_beef',
outdir = './Nb2Au2',
degauss = 0.001,
DeltaE = 0.001,
filpdos = 'Nb2Au2.pdos.out',
filproj = 'Nb2Au2.proj.out',
/
