&DOS
prefix = 'Nb2Mo2_beef',
outdir = './Nb2Mo2',
degauss = 0.001,
DeltaE = 0.001,
fildos = 'Nb2Mo2.dos.out',
/
