&INPUTPP
prefix = 'Nb2Os2_beef',
outdir = './Nb2Os2',
filplot = 'Nb2Os2-wf.dat',
plot_num = 11
/
