&DOS
prefix = 'Nb2Os2_beef',
outdir = './Nb2Os2',
degauss = 0.001,
DeltaE = 0.001,
fildos = 'Nb2Os2.dos.out',
/
