&PROJWFC
prefix = 'Nb2Os2_beef',
outdir = './Nb2Os2',
degauss = 0.001,
DeltaE = 0.001,
filpdos = 'Nb2Os2.pdos.out',
filproj = 'Nb2Os2.proj.out',
/
