&INPUTPP
prefix = 'Nb2Y2_beef',
outdir = './Nb2Y2',
filplot = 'Nb2Y2-wf.dat',
plot_num = 11
/
