&DOS
prefix = 'Nb2Y2_beef',
outdir = './Nb2Y2',
degauss = 0.001,
DeltaE = 0.001,
fildos = 'Nb2Y2.dos.out',
/
