&PROJWFC
prefix = 'Nb2Y2_beef',
outdir = './Nb2Y2',
degauss = 0.001,
DeltaE = 0.001,
filpdos = 'Nb2Y2.pdos.out',
filproj = 'Nb2Y2.proj.out',
/
