&INPUTPP
prefix = 'Os2Au2_beef',
outdir = './Os2Au2',
filplot = 'Os2Au2-wf.dat',
plot_num = 11
/
