&PROJWFC
prefix = 'Os2Au2_beef',
outdir = './Os2Au2',
degauss = 0.001,
DeltaE = 0.001,
filpdos = 'Os2Au2.pdos.out',
filproj = 'Os2Au2.proj.out',
/
