&PROJWFC
prefix = 'Rh2Os2_beef',
outdir = './Rh2Os2',
degauss = 0.001,
DeltaE = 0.001,
filpdos = 'Rh2Os2.pdos.out',
filproj = 'Rh2Os2.proj.out',
/
