&INPUTPP
prefix = 'Rh2Os2_beef',
outdir = './Rh2Os2',
filplot = 'Rh2Os2-wf.dat',
plot_num = 11
/
