&INPUTPP
prefix = 'Rh2Y2_beef',
outdir = './Rh2Y2',
filplot = 'Rh2Y2-wf.dat',
plot_num = 11
/
