&DOS
prefix = 'Rh2Y2_beef',
outdir = './Rh2Y2',
degauss = 0.001,
DeltaE = 0.001,
fildos = 'Rh2Y2.dos.out',
/
