&INPUTPP
prefix = 'Sc2Hg2_beef',
outdir = './Sc2Hg2',
filplot = 'Sc2Hg2-wf.dat',
plot_num = 11
/
