&DOS
prefix = 'Sc2Hg2_beef',
outdir = './Sc2Hg2',
degauss = 0.001,
DeltaE = 0.001,
fildos = 'Sc2Hg2.dos.out',
/
