&DOS
prefix = 'Sc2Os2_beef',
outdir = './Sc2Os2',
degauss = 0.001,
DeltaE = 0.001,
fildos = 'Sc2Os2.dos.out',
/
