&PROJWFC
prefix = 'Sc2Os2_beef',
outdir = './Sc2Os2',
degauss = 0.001,
DeltaE = 0.001,
filpdos = 'Sc2Os2.pdos.out',
filproj = 'Sc2Os2.proj.out',
/
