&INPUTPP
prefix = 'Sc2Y2_beef',
outdir = './Sc2Y2',
filplot = 'Sc2Y2-wf.dat',
plot_num = 11
/
