&PROJWFC
prefix = 'Sc2Y2_beef',
outdir = './Sc2Y2',
degauss = 0.001,
DeltaE = 0.001,
filpdos = 'Sc2Y2.pdos.out',
filproj = 'Sc2Y2.proj.out',
/
