&PROJWFC
prefix = 'Y2Au2_beef',
outdir = './Y2Au2',
degauss = 0.001,
DeltaE = 0.001,
filpdos = 'Y2Au2.pdos.out',
filproj = 'Y2Au2.proj.out',
/
