&PROJWFC
prefix = 'Y2Hg2_beef',
outdir = './Y2Hg2',
degauss = 0.001,
DeltaE = 0.001,
filpdos = 'Y2Hg2.pdos.out',
filproj = 'Y2Hg2.proj.out',
/
