&INPUTPP
prefix = 'Y2Os2_beef',
outdir = './Y2Os2',
filplot = 'Y2Os2-wf.dat',
plot_num = 11
/
