&PROJWFC
prefix = 'Y2Os2_beef',
outdir = './Y2Os2',
degauss = 0.001,
DeltaE = 0.001,
filpdos = 'Y2Os2.pdos.out',
filproj = 'Y2Os2.proj.out',
/
