&DOS
prefix = 'Zr2Hg2_beef',
outdir = './Zr2Hg2',
degauss = 0.001,
DeltaE = 0.001,
fildos = 'Zr2Hg2.dos.out',
/
