&INPUTPP
prefix = 'Zr2Hg2_beef',
outdir = './Zr2Hg2',
filplot = 'Zr2Hg2-wf.dat',
plot_num = 11
/
