&PROJWFC
prefix = 'Zr2Hg2_beef',
outdir = './Zr2Hg2',
degauss = 0.001,
DeltaE = 0.001,
filpdos = 'Zr2Hg2.pdos.out',
filproj = 'Zr2Hg2.proj.out',
/
