&INPUTPP
prefix = 'Zr2Nb2_beef',
outdir = './Zr2Nb2',
filplot = 'Zr2Nb2-wf.dat',
plot_num = 11
/
