&INPUTPP
prefix = 'Zr2Os2_beef',
outdir = './Zr2Os2',
filplot = 'Zr2Os2-wf.dat',
plot_num = 11
/
