&DOS
prefix = 'Zr2Os2_beef',
outdir = './Zr2Os2',
degauss = 0.001,
DeltaE = 0.001,
fildos = 'Zr2Os2.dos.out',
/
