&PROJWFC
prefix = 'Zr2Os2_beef',
outdir = './Zr2Os2',
degauss = 0.001,
DeltaE = 0.001,
filpdos = 'Zr2Os2.pdos.out',
filproj = 'Zr2Os2.proj.out',
/
