&PROJWFC
prefix = 'Zr2Y2_beef',
outdir = './Zr2Y2',
degauss = 0.001,
DeltaE = 0.001,
filpdos = 'Zr2Y2.pdos.out',
filproj = 'Zr2Y2.proj.out',
/
