&DOS
prefix = 'Zr2Y2_beef',
outdir = './Zr2Y2',
degauss = 0.001,
DeltaE = 0.001,
fildos = 'Zr2Y2.dos.out',
/
