&INPUTPP
prefix = 'Zr2Y2_beef',
outdir = './Zr2Y2',
filplot = 'Zr2Y2-wf.dat',
plot_num = 11
/
