&CONTROL
   calculation      = 'scf'
   tstress          = .true.
   tprnfor          = .true.
   outdir           = './Co2Hf2'
   prefix           = 'Co2Hf2_beef'
   pseudo_dir       = '../pseudo'
   tefield          = .true.
   dipfield         = .true.
/
&SYSTEM
   celldm(1)        = 1.889726
   ecutwfc          = 55.123963237125
   ecutrho          = 551.23963237125
   nosym            = .true.
   occupations      = 'smearing'
   degauss          = 0.01D0
   smearing         = 'fd'
   input_dft        = 'BEEF-vdW'
   edir             = 3
   emaxpos          = 0.95
   eopreg           = 0.05
   eamp             = 0.01
   nspin            = 2
   starting_magnetization(1) = 0.7058823529411765
   starting_magnetization(2) = 0.0
   ntyp             = 2
   nat              = 12
   ibrav            = 0
/
&ELECTRONS
   electron_maxstep = 500
   conv_thr         = 1e-05
   mixing_mode      = 'plain'
   mixing_beta      = 0.1
   mixing_ndim      = 10
/
&IONS
/
&CELL
/

ATOMIC_SPECIES
Co  58.933194 Co.pbe-spn-rrkjus_psl.0.3.1.UPF
Hf  178.49 Hf.pbe-spn-rrkjus_psl.1.0.0.UPF

K_POINTS automatic
12 12 1  0 0 0

CELL_PARAMETERS alat
5.48421600000000 0.00000000000000 0.00000000000000
1.80915700000000 5.17721700000000 0.00000000000000
0.00000000000000 0.00000000000000 24.47191300000000

ATOMIC_POSITIONS alat
Co  0.0000000000 0.0000000000 10.0000000000
Co  3.6466861000 2.5886084000 10.0000000000
Hf  2.7421078000 0.0000000000 10.0000000000
Hf  0.9045783000 2.5886084000 10.0000000000
Co  5.4842157000 3.8929830000 12.2359563000
Co  1.8375296000 1.3043745000 12.2359563000
Hf  2.7421078000 3.8929830000 12.2359563000
Hf  4.5796374000 1.3043745000 12.2359563000
Co  3.6677266000 2.6035481000 14.2240196000
Co  0.0211424000 0.0150038000 14.2239791000
Hf  0.9227746000 2.6015019000 14.4686227000
Hf  2.7602843000 0.0129255000 14.4686254000

