&CONTROL
   calculation      = 'scf'
   tstress          = .true.
   tprnfor          = .true.
   outdir           = './Co2Ir2'
   prefix           = 'Co2Ir2_beef'
   pseudo_dir       = '../pseudo'
   tefield          = .true.
   dipfield         = .true.
/
&SYSTEM
   celldm(1)        = 1.889726
   ecutwfc          = 55.123963237125
   ecutrho          = 551.23963237125
   nosym            = .true.
   occupations      = 'smearing'
   degauss          = 0.01D0
   smearing         = 'fd'
   input_dft        = 'BEEF-vdW'
   edir             = 3
   emaxpos          = 0.95
   eopreg           = 0.05
   eamp             = 0.01
   nspin            = 2
   starting_magnetization(1) = 0.7058823529411765
   starting_magnetization(2) = 0.0
   ntyp             = 2
   nat              = 12
   ibrav            = 0
/
&ELECTRONS
   electron_maxstep = 500
   conv_thr         = 1e-05
   mixing_mode      = 'plain'
   mixing_beta      = 0.1
   mixing_ndim      = 10
/
&IONS
/
&CELL
/

ATOMIC_SPECIES
Co  58.933194 Co.pbe-spn-rrkjus_psl.0.3.1.UPF
Ir  192.217 Ir.pbe-n-rrkjus_psl.0.2.3.UPF

K_POINTS automatic
12 12 1  0 0 0

CELL_PARAMETERS alat
5.21981200000000 0.00000000000000 0.00000000000000
2.50586800000000 4.57898100000000 0.00000000000000
0.00000000000000 0.00000000000000 24.28715000000000

ATOMIC_POSITIONS alat
Co  0.0000000000 0.0000000000 10.0000000000
Co  3.8628402000 2.2894905000 10.0000000000
Ir  2.6099062000 0.0000000000 10.0000000000
Ir  1.2529340000 2.2894905000 10.0000000000
Co  5.2198125000 3.0937628000 12.1435749000
Co  1.3569722000 0.8042722000 12.1435749000
Ir  2.6099062000 3.0937628000 12.1435749000
Ir  3.9668785000 0.8042722000 12.1435749000
Co  2.6307025000 1.5592068000 14.2452894000
Co  6.4935579000 3.8487071000 14.2452563000
Ir  5.2699011000 1.5764400000 14.2842557000
Ir  3.9128163000 3.8661207000 14.2842555000

