&CONTROL
   calculation      = 'scf'
   tstress          = .true.
   tprnfor          = .true.
   outdir           = './Co2Ru2'
   prefix           = 'Co2Ru2_beef'
   pseudo_dir       = '../pseudo'
   tefield          = .true.
   dipfield         = .true.
/
&SYSTEM
   celldm(1)        = 1.889726
   ecutwfc          = 55.123963237125
   ecutrho          = 551.23963237125
   nosym            = .true.
   occupations      = 'smearing'
   degauss          = 0.01D0
   smearing         = 'fd'
   input_dft        = 'BEEF-vdW'
   edir             = 3
   emaxpos          = 0.95
   eopreg           = 0.05
   eamp             = 0.01
   nspin            = 2
   starting_magnetization(1) = 0.7058823529411765
   starting_magnetization(2) = 0.0
   ntyp             = 2
   nat              = 12
   ibrav            = 0
/
&ELECTRONS
   electron_maxstep = 500
   conv_thr         = 1e-05
   mixing_mode      = 'plain'
   mixing_beta      = 0.1
   mixing_ndim      = 10
/
&IONS
/
&CELL
/

ATOMIC_SPECIES
Co  58.933194 Co.pbe-spn-rrkjus_psl.0.3.1.UPF
Ru  101.07 Ru.pbe-spn-rrkjus_psl.1.0.0.UPF

K_POINTS automatic
12 12 1  0 0 0

CELL_PARAMETERS alat
5.18192300000000 0.00000000000000 0.00000000000000
2.53653200000000 4.51866500000000 0.00000000000000
0.00000000000000 0.00000000000000 24.24497800000000

ATOMIC_POSITIONS alat
Co  0.0000000000 0.0000000000 10.0000000000
Co  3.8592274000 2.2593326000 10.0000000000
Ru  2.5909616000 0.0000000000 10.0000000000
Ru  1.2682658000 2.2593326000 10.0000000000
Co  5.1819231000 3.0336869000 12.1224889000
Co  1.3226957000 0.7743544000 12.1224889000
Ru  2.5909616000 3.0336869000 12.1224889000
Ru  3.9136573000 0.7743544000 12.1224889000
Co  2.6150809000 1.5309643000 14.1688417000
Co  6.4742688000 3.7902726000 14.1688501000
Ru  5.2197702000 1.5389874000 14.2058629000
Ru  3.8970635000 3.7983398000 14.2058630000

