&CONTROL
   calculation      = 'scf'
   tstress          = .true.
   tprnfor          = .true.
   outdir           = './Co2W2'
   prefix           = 'Co2W2_beef'
   pseudo_dir       = '../pseudo'
   tefield          = .true.
   dipfield         = .true.
/
&SYSTEM
   celldm(1)        = 1.889726
   ecutwfc          = 55.123963237125
   ecutrho          = 551.23963237125
   nosym            = .true.
   occupations      = 'smearing'
   degauss          = 0.01D0
   smearing         = 'fd'
   input_dft        = 'BEEF-vdW'
   edir             = 3
   emaxpos          = 0.95
   eopreg           = 0.05
   eamp             = 0.01
   nspin            = 2
   starting_magnetization(1) = 0.7058823529411765
   starting_magnetization(2) = 0.0
   ntyp             = 2
   nat              = 12
   ibrav            = 0
/
&ELECTRONS
   electron_maxstep = 500
   conv_thr         = 1e-05
   mixing_mode      = 'plain'
   mixing_beta      = 0.1
   mixing_ndim      = 10
/
&IONS
/
&CELL
/

ATOMIC_SPECIES
Co  58.933194 Co.pbe-spn-rrkjus_psl.0.3.1.UPF
W  183.84 W.pbe-spn-rrkjus_psl.0.2.3.UPF

K_POINTS automatic
12 12 1  0 0 0

CELL_PARAMETERS alat
5.29138300000000 0.00000000000000 0.00000000000000
2.59787800000000 4.60974700000000 0.00000000000000
0.00000000000000 0.00000000000000 24.33276100000000

ATOMIC_POSITIONS alat
Co  0.0000000000 0.0000000000 10.0000000000
Co  3.9446305000 2.3048734000 10.0000000000
W  2.6456916000 0.0000000000 10.0000000000
W  1.2989390000 2.3048734000 10.0000000000
Co  5.2913831000 3.0917897000 12.1663804000
Co  1.3467526000 0.7869163000 12.1663804000
W  2.6456916000 3.0917897000 12.1663804000
W  3.9924441000 0.7869163000 12.1663804000
Co  2.7339852000 1.5975063000 14.2620269000
Co  6.6784597000 3.9022476000 14.2619134000
W  5.3957388000 1.6068945000 14.2555496000
W  4.0490157000 3.9117376000 14.2555574000

