&PROJWFC
prefix = 'Co2Au2_beef',
outdir = './Co2Au2',
degauss = 0.001,
DeltaE = 0.001,
filpdos = 'Co2Au2.pdos.out',
filproj = 'Co2Au2.proj.out',
/
