&INPUTPP
prefix = 'Co2Au2_beef',
outdir = './Co2Au2',
filplot = 'Co2Au2-wf.dat',
plot_num = 11
/
