&INPUTPP
prefix = 'Co2Ag2_beef',
outdir = './Co2Ag2',
filplot = 'Co2Ag2-wf.dat',
plot_num = 11
/
