&DOS
prefix = 'Co2Ag2_beef',
outdir = './Co2Ag2',
degauss = 0.001,
DeltaE = 0.001,
fildos = 'Co2Ag2.dos.out',
/
