&DOS
prefix = 'Co2Au2_beef',
outdir = './Co2Au2',
degauss = 0.001,
DeltaE = 0.001,
fildos = 'Co2Au2.dos.out',
/
