&PROJWFC
prefix = 'Co2Ag2_beef',
outdir = './Co2Ag2',
degauss = 0.001,
DeltaE = 0.001,
filpdos = 'Co2Ag2.pdos.out',
filproj = 'Co2Ag2.proj.out',
/
