&INPUTPP
prefix = 'Co2Cu2_beef',
outdir = './Co2Cu2',
filplot = 'Co2Cu2-wf.dat',
plot_num = 11
/
