&INPUTPP
prefix = 'Co2Cd2_beef',
outdir = './Co2Cd2',
filplot = 'Co2Cd2-wf.dat',
plot_num = 11
/
