&PROJWFC
prefix = 'Co2Cu2_beef',
outdir = './Co2Cu2',
degauss = 0.001,
DeltaE = 0.001,
filpdos = 'Co2Cu2.pdos.out',
filproj = 'Co2Cu2.proj.out',
/
