&DOS
prefix = 'Co2Cd2_beef',
outdir = './Co2Cd2',
degauss = 0.001,
DeltaE = 0.001,
fildos = 'Co2Cd2.dos.out',
/
