&PROJWFC
prefix = 'Co2Cd2_beef',
outdir = './Co2Cd2',
degauss = 0.001,
DeltaE = 0.001,
filpdos = 'Co2Cd2.pdos.out',
filproj = 'Co2Cd2.proj.out',
/
