&DOS
prefix = 'Co2Cu2_beef',
outdir = './Co2Cu2',
degauss = 0.001,
DeltaE = 0.001,
fildos = 'Co2Cu2.dos.out',
/
