&INPUTPP
prefix = 'Co2Hf2_beef',
outdir = './Co2Hf2',
filplot = 'Co2Hf2-wf.dat',
plot_num = 11
/
