&PROJWFC
prefix = 'Co2Hf2_beef',
outdir = './Co2Hf2',
degauss = 0.001,
DeltaE = 0.001,
filpdos = 'Co2Hf2.pdos.out',
filproj = 'Co2Hf2.proj.out',
/
