&DOS
prefix = 'Co2Hf2_beef',
outdir = './Co2Hf2',
degauss = 0.001,
DeltaE = 0.001,
fildos = 'Co2Hf2.dos.out',
/
