&INPUTPP
prefix = 'Co2Hg2_beef',
outdir = './Co2Hg2',
filplot = 'Co2Hg2-wf.dat',
plot_num = 11
/
