&DOS
prefix = 'Co2Hg2_beef',
outdir = './Co2Hg2',
degauss = 0.001,
DeltaE = 0.001,
fildos = 'Co2Hg2.dos.out',
/
