&PROJWFC
prefix = 'Co2Hg2_beef',
outdir = './Co2Hg2',
degauss = 0.001,
DeltaE = 0.001,
filpdos = 'Co2Hg2.pdos.out',
filproj = 'Co2Hg2.proj.out',
/
