&INPUTPP
prefix = 'Co2Ir2_beef',
outdir = './Co2Ir2',
filplot = 'Co2Ir2-wf.dat',
plot_num = 11
/
