&PROJWFC
prefix = 'Co2Ir2_beef',
outdir = './Co2Ir2',
degauss = 0.001,
DeltaE = 0.001,
filpdos = 'Co2Ir2.pdos.out',
filproj = 'Co2Ir2.proj.out',
/
