&DOS
prefix = 'Co2Ir2_beef',
outdir = './Co2Ir2',
degauss = 0.001,
DeltaE = 0.001,
fildos = 'Co2Ir2.dos.out',
/
