&PROJWFC
prefix = 'Co2La2_beef',
outdir = './Co2La2',
degauss = 0.001,
DeltaE = 0.001,
filpdos = 'Co2La2.pdos.out',
filproj = 'Co2La2.proj.out',
/
