&INPUTPP
prefix = 'Co2La2_beef',
outdir = './Co2La2',
filplot = 'Co2La2-wf.dat',
plot_num = 11
/
