&DOS
prefix = 'Co2La2_beef',
outdir = './Co2La2',
degauss = 0.001,
DeltaE = 0.001,
fildos = 'Co2La2.dos.out',
/
