&DOS
prefix = 'Co2Ni2_beef',
outdir = './Co2Ni2',
degauss = 0.001,
DeltaE = 0.001,
fildos = 'Co2Ni2.dos.out',
/
