&INPUTPP
prefix = 'Co2Ni2_beef',
outdir = './Co2Ni2',
filplot = 'Co2Ni2-wf.dat',
plot_num = 11
/
