&PROJWFC
prefix = 'Co2Ni2_beef',
outdir = './Co2Ni2',
degauss = 0.001,
DeltaE = 0.001,
filpdos = 'Co2Ni2.pdos.out',
filproj = 'Co2Ni2.proj.out',
/
