&DOS
prefix = 'Co2Os2_beef',
outdir = './Co2Os2',
degauss = 0.001,
DeltaE = 0.001,
fildos = 'Co2Os2.dos.out',
/
