&INPUTPP
prefix = 'Co2Os2_beef',
outdir = './Co2Os2',
filplot = 'Co2Os2-wf.dat',
plot_num = 11
/
