&PROJWFC
prefix = 'Co2Pd2_beef',
outdir = './Co2Pd2',
degauss = 0.001,
DeltaE = 0.001,
filpdos = 'Co2Pd2.pdos.out',
filproj = 'Co2Pd2.proj.out',
/
