&INPUTPP
prefix = 'Co2Pt2_beef',
outdir = './Co2Pt2',
filplot = 'Co2Pt2-wf.dat',
plot_num = 11
/
