&INPUTPP
prefix = 'Co2Pd2_beef',
outdir = './Co2Pd2',
filplot = 'Co2Pd2-wf.dat',
plot_num = 11
/
