&DOS
prefix = 'Co2Pt2_beef',
outdir = './Co2Pt2',
degauss = 0.001,
DeltaE = 0.001,
fildos = 'Co2Pt2.dos.out',
/
