&PROJWFC
prefix = 'Co2Pt2_beef',
outdir = './Co2Pt2',
degauss = 0.001,
DeltaE = 0.001,
filpdos = 'Co2Pt2.pdos.out',
filproj = 'Co2Pt2.proj.out',
/
