&DOS
prefix = 'Co2Pd2_beef',
outdir = './Co2Pd2',
degauss = 0.001,
DeltaE = 0.001,
fildos = 'Co2Pd2.dos.out',
/
