&INPUTPP
prefix = 'Co2Rh2_beef',
outdir = './Co2Rh2',
filplot = 'Co2Rh2-wf.dat',
plot_num = 11
/
