&INPUTPP
prefix = 'Co2Ru2_beef',
outdir = './Co2Ru2',
filplot = 'Co2Ru2-wf.dat',
plot_num = 11
/
