&DOS
prefix = 'Co2Re2_beef',
outdir = './Co2Re2',
degauss = 0.001,
DeltaE = 0.001,
fildos = 'Co2Re2.dos.out',
/
