&DOS
prefix = 'Co2Rh2_beef',
outdir = './Co2Rh2',
degauss = 0.001,
DeltaE = 0.001,
fildos = 'Co2Rh2.dos.out',
/
