&DOS
prefix = 'Co2Ru2_beef',
outdir = './Co2Ru2',
degauss = 0.001,
DeltaE = 0.001,
fildos = 'Co2Ru2.dos.out',
/
