&PROJWFC
prefix = 'Co2Ru2_beef',
outdir = './Co2Ru2',
degauss = 0.001,
DeltaE = 0.001,
filpdos = 'Co2Ru2.pdos.out',
filproj = 'Co2Ru2.proj.out',
/
