&PROJWFC
prefix = 'Co2Re2_beef',
outdir = './Co2Re2',
degauss = 0.001,
DeltaE = 0.001,
filpdos = 'Co2Re2.pdos.out',
filproj = 'Co2Re2.proj.out',
/
