&PROJWFC
prefix = 'Co2Rh2_beef',
outdir = './Co2Rh2',
degauss = 0.001,
DeltaE = 0.001,
filpdos = 'Co2Rh2.pdos.out',
filproj = 'Co2Rh2.proj.out',
/
