&INPUTPP
prefix = 'Co2Re2_beef',
outdir = './Co2Re2',
filplot = 'Co2Re2-wf.dat',
plot_num = 11
/
