&DOS
prefix = 'Co2Sc2_beef',
outdir = './Co2Sc2',
degauss = 0.001,
DeltaE = 0.001,
fildos = 'Co2Sc2.dos.out',
/
