&PROJWFC
prefix = 'Co2Sc2_beef',
outdir = './Co2Sc2',
degauss = 0.001,
DeltaE = 0.001,
filpdos = 'Co2Sc2.pdos.out',
filproj = 'Co2Sc2.proj.out',
/
