&INPUTPP
prefix = 'Co2Sc2_beef',
outdir = './Co2Sc2',
filplot = 'Co2Sc2-wf.dat',
plot_num = 11
/
