&PROJWFC
prefix = 'Co2Ti2_beef',
outdir = './Co2Ti2',
degauss = 0.001,
DeltaE = 0.001,
filpdos = 'Co2Ti2.pdos.out',
filproj = 'Co2Ti2.proj.out',
/
