&DOS
prefix = 'Co2Ti2_beef',
outdir = './Co2Ti2',
degauss = 0.001,
DeltaE = 0.001,
fildos = 'Co2Ti2.dos.out',
/
