&INPUTPP
prefix = 'Co2Ti2_beef',
outdir = './Co2Ti2',
filplot = 'Co2Ti2-wf.dat',
plot_num = 11
/
