&DOS
prefix = 'Co2V2_beef',
outdir = './Co2V2',
degauss = 0.001,
DeltaE = 0.001,
fildos = 'Co2V2.dos.out',
/
