&INPUTPP
prefix = 'Co2V2_beef',
outdir = './Co2V2',
filplot = 'Co2V2-wf.dat',
plot_num = 11
/
