&PROJWFC
prefix = 'Co2V2_beef',
outdir = './Co2V2',
degauss = 0.001,
DeltaE = 0.001,
filpdos = 'Co2V2.pdos.out',
filproj = 'Co2V2.proj.out',
/
