&INPUTPP
prefix = 'Co2W2_beef',
outdir = './Co2W2',
filplot = 'Co2W2-wf.dat',
plot_num = 11
/
