&DOS
prefix = 'Co2W2_beef',
outdir = './Co2W2',
degauss = 0.001,
DeltaE = 0.001,
fildos = 'Co2W2.dos.out',
/
