&PROJWFC
prefix = 'Co2W2_beef',
outdir = './Co2W2',
degauss = 0.001,
DeltaE = 0.001,
filpdos = 'Co2W2.pdos.out',
filproj = 'Co2W2.proj.out',
/
