&DOS
prefix = 'Co2Y2_beef',
outdir = './Co2Y2',
degauss = 0.001,
DeltaE = 0.001,
fildos = 'Co2Y2.dos.out',
/
