&PROJWFC
prefix = 'Co2Y2_beef',
outdir = './Co2Y2',
degauss = 0.001,
DeltaE = 0.001,
filpdos = 'Co2Y2.pdos.out',
filproj = 'Co2Y2.proj.out',
/
