&INPUTPP
prefix = 'Co2Y2_beef',
outdir = './Co2Y2',
filplot = 'Co2Y2-wf.dat',
plot_num = 11
/
