&DOS
prefix = 'Co2Zr2_beef',
outdir = './Co2Zr2',
degauss = 0.001,
DeltaE = 0.001,
fildos = 'Co2Zr2.dos.out',
/
