&PROJWFC
prefix = 'Co2Zr2_beef',
outdir = './Co2Zr2',
degauss = 0.001,
DeltaE = 0.001,
filpdos = 'Co2Zr2.pdos.out',
filproj = 'Co2Zr2.proj.out',
/
