&INPUTPP
prefix = 'Co2Zr2_beef',
outdir = './Co2Zr2',
filplot = 'Co2Zr2-wf.dat',
plot_num = 11
/
