&DOS
prefix = 'Co2Zn2_beef',
outdir = './Co2Zn2',
degauss = 0.001,
DeltaE = 0.001,
fildos = 'Co2Zn2.dos.out',
/
