&PROJWFC
prefix = 'Co2Zn2_beef',
outdir = './Co2Zn2',
degauss = 0.001,
DeltaE = 0.001,
filpdos = 'Co2Zn2.pdos.out',
filproj = 'Co2Zn2.proj.out',
/
