&INPUTPP
prefix = 'Co2Zn2_beef',
outdir = './Co2Zn2',
filplot = 'Co2Zn2-wf.dat',
plot_num = 11
/
