&PROJWFC
prefix = 'Cr2Zn2_beef',
outdir = './Cr2Zn2',
degauss = 0.001,
DeltaE = 0.001,
filpdos = 'Cr2Zn2.pdos.out',
filproj = 'Cr2Zn2.proj.out',
/
