&DOS
prefix = 'Cr2Zn2_beef',
outdir = './Cr2Zn2',
degauss = 0.001,
DeltaE = 0.001,
fildos = 'Cr2Zn2.dos.out',
/
