&INPUTPP
prefix = 'Cr2Zn2_beef',
outdir = './Cr2Zn2',
filplot = 'Cr2Zn2-wf.dat',
plot_num = 11
/
