&INPUTPP
prefix = 'Cu2Zn2_beef',
outdir = './Cu2Zn2',
filplot = 'Cu2Zn2-wf.dat',
plot_num = 11
/
