&PROJWFC
prefix = 'Cu2Zn2_beef',
outdir = './Cu2Zn2',
degauss = 0.001,
DeltaE = 0.001,
filpdos = 'Cu2Zn2.pdos.out',
filproj = 'Cu2Zn2.proj.out',
/
