&DOS
prefix = 'Cu2Zn2_beef',
outdir = './Cu2Zn2',
degauss = 0.001,
DeltaE = 0.001,
fildos = 'Cu2Zn2.dos.out',
/
