&DOS
prefix = 'Fe2Zn2_beef',
outdir = './Fe2Zn2',
degauss = 0.001,
DeltaE = 0.001,
fildos = 'Fe2Zn2.dos.out',
/
