&PROJWFC
prefix = 'Fe2Zn2_beef',
outdir = './Fe2Zn2',
degauss = 0.001,
DeltaE = 0.001,
filpdos = 'Fe2Zn2.pdos.out',
filproj = 'Fe2Zn2.proj.out',
/
