&INPUTPP
prefix = 'Fe2Zn2_beef',
outdir = './Fe2Zn2',
filplot = 'Fe2Zn2-wf.dat',
plot_num = 11
/
