&PROJWFC
prefix = 'Mn2Zn2_beef',
outdir = './Mn2Zn2',
degauss = 0.001,
DeltaE = 0.001,
filpdos = 'Mn2Zn2.pdos.out',
filproj = 'Mn2Zn2.proj.out',
/
