&INPUTPP
prefix = 'Mn2Zn2_beef',
outdir = './Mn2Zn2',
filplot = 'Mn2Zn2-wf.dat',
plot_num = 11
/
