&DOS
prefix = 'Mn2Zn2_beef',
outdir = './Mn2Zn2',
degauss = 0.001,
DeltaE = 0.001,
fildos = 'Mn2Zn2.dos.out',
/
