&INPUTPP
prefix = 'Ni2Zn2_beef',
outdir = './Ni2Zn2',
filplot = 'Ni2Zn2-wf.dat',
plot_num = 11
/
