&PROJWFC
prefix = 'Ni2Zn2_beef',
outdir = './Ni2Zn2',
degauss = 0.001,
DeltaE = 0.001,
filpdos = 'Ni2Zn2.pdos.out',
filproj = 'Ni2Zn2.proj.out',
/
