&DOS
prefix = 'Ni2Zn2_beef',
outdir = './Ni2Zn2',
degauss = 0.001,
DeltaE = 0.001,
fildos = 'Ni2Zn2.dos.out',
/
