&INPUTPP
prefix = 'Sc2Zn2_beef',
outdir = './Sc2Zn2',
filplot = 'Sc2Zn2-wf.dat',
plot_num = 11
/
