&DOS
prefix = 'Sc2Zn2_beef',
outdir = './Sc2Zn2',
degauss = 0.001,
DeltaE = 0.001,
fildos = 'Sc2Zn2.dos.out',
/
