&PROJWFC
prefix = 'Sc2Zn2_beef',
outdir = './Sc2Zn2',
degauss = 0.001,
DeltaE = 0.001,
filpdos = 'Sc2Zn2.pdos.out',
filproj = 'Sc2Zn2.proj.out',
/
