&INPUTPP
prefix = 'Ti2Zn2_beef',
outdir = './Ti2Zn2',
filplot = 'Ti2Zn2-wf.dat',
plot_num = 11
/
