&PROJWFC
prefix = 'Ti2Zn2_beef',
outdir = './Ti2Zn2',
degauss = 0.001,
DeltaE = 0.001,
filpdos = 'Ti2Zn2.pdos.out',
filproj = 'Ti2Zn2.proj.out',
/
