&DOS
prefix = 'Ti2Zn2_beef',
outdir = './Ti2Zn2',
degauss = 0.001,
DeltaE = 0.001,
fildos = 'Ti2Zn2.dos.out',
/
