&INPUTPP
prefix = 'V2Zn2_beef',
outdir = './V2Zn2',
filplot = 'V2Zn2-wf.dat',
plot_num = 11
/
