&DOS
prefix = 'V2Zn2_beef',
outdir = './V2Zn2',
degauss = 0.001,
DeltaE = 0.001,
fildos = 'V2Zn2.dos.out',
/
