&PROJWFC
prefix = 'V2Zn2_beef',
outdir = './V2Zn2',
degauss = 0.001,
DeltaE = 0.001,
filpdos = 'V2Zn2.pdos.out',
filproj = 'V2Zn2.proj.out',
/
