&INPUTPP
prefix = 'Zn2Au2_beef',
outdir = './Zn2Au2',
filplot = 'Zn2Au2-wf.dat',
plot_num = 11
/
