&INPUTPP
prefix = 'Zn2Ag2_beef',
outdir = './Zn2Ag2',
filplot = 'Zn2Ag2-wf.dat',
plot_num = 11
/
