&PROJWFC
prefix = 'Zn2Au2_beef',
outdir = './Zn2Au2',
degauss = 0.001,
DeltaE = 0.001,
filpdos = 'Zn2Au2.pdos.out',
filproj = 'Zn2Au2.proj.out',
/
