&PROJWFC
prefix = 'Zn2Ag2_beef',
outdir = './Zn2Ag2',
degauss = 0.001,
DeltaE = 0.001,
filpdos = 'Zn2Ag2.pdos.out',
filproj = 'Zn2Ag2.proj.out',
/
