&DOS
prefix = 'Zn2Au2_beef',
outdir = './Zn2Au2',
degauss = 0.001,
DeltaE = 0.001,
fildos = 'Zn2Au2.dos.out',
/
