&DOS
prefix = 'Zn2Ag2_beef',
outdir = './Zn2Ag2',
degauss = 0.001,
DeltaE = 0.001,
fildos = 'Zn2Ag2.dos.out',
/
