&DOS
prefix = 'Zn2Cd2_beef',
outdir = './Zn2Cd2',
degauss = 0.001,
DeltaE = 0.001,
fildos = 'Zn2Cd2.dos.out',
/
