&INPUTPP
prefix = 'Zn2Cd2_beef',
outdir = './Zn2Cd2',
filplot = 'Zn2Cd2-wf.dat',
plot_num = 11
/
