&PROJWFC
prefix = 'Zn2Cd2_beef',
outdir = './Zn2Cd2',
degauss = 0.001,
DeltaE = 0.001,
filpdos = 'Zn2Cd2.pdos.out',
filproj = 'Zn2Cd2.proj.out',
/
