&INPUTPP
prefix = 'Zn2Hf2_beef',
outdir = './Zn2Hf2',
filplot = 'Zn2Hf2-wf.dat',
plot_num = 11
/
