&PROJWFC
prefix = 'Zn2Hf2_beef',
outdir = './Zn2Hf2',
degauss = 0.001,
DeltaE = 0.001,
filpdos = 'Zn2Hf2.pdos.out',
filproj = 'Zn2Hf2.proj.out',
/
