&PROJWFC
prefix = 'Zn2Hg2_beef',
outdir = './Zn2Hg2',
degauss = 0.001,
DeltaE = 0.001,
filpdos = 'Zn2Hg2.pdos.out',
filproj = 'Zn2Hg2.proj.out',
/
