&DOS
prefix = 'Zn2Hf2_beef',
outdir = './Zn2Hf2',
degauss = 0.001,
DeltaE = 0.001,
fildos = 'Zn2Hf2.dos.out',
/
