&INPUTPP
prefix = 'Zn2Hg2_beef',
outdir = './Zn2Hg2',
filplot = 'Zn2Hg2-wf.dat',
plot_num = 11
/
