&DOS
prefix = 'Zn2Hg2_beef',
outdir = './Zn2Hg2',
degauss = 0.001,
DeltaE = 0.001,
fildos = 'Zn2Hg2.dos.out',
/
