&DOS
prefix = 'Zn2Ir2_beef',
outdir = './Zn2Ir2',
degauss = 0.001,
DeltaE = 0.001,
fildos = 'Zn2Ir2.dos.out',
/
