&INPUTPP
prefix = 'Zn2Ir2_beef',
outdir = './Zn2Ir2',
filplot = 'Zn2Ir2-wf.dat',
plot_num = 11
/
