&PROJWFC
prefix = 'Zn2Ir2_beef',
outdir = './Zn2Ir2',
degauss = 0.001,
DeltaE = 0.001,
filpdos = 'Zn2Ir2.pdos.out',
filproj = 'Zn2Ir2.proj.out',
/
