&INPUTPP
prefix = 'Zn2La2_beef',
outdir = './Zn2La2',
filplot = 'Zn2La2-wf.dat',
plot_num = 11
/
