&DOS
prefix = 'Zn2La2_beef',
outdir = './Zn2La2',
degauss = 0.001,
DeltaE = 0.001,
fildos = 'Zn2La2.dos.out',
/
