&PROJWFC
prefix = 'Zn2La2_beef',
outdir = './Zn2La2',
degauss = 0.001,
DeltaE = 0.001,
filpdos = 'Zn2La2.pdos.out',
filproj = 'Zn2La2.proj.out',
/
