&INPUTPP
prefix = 'Zn2Mo2_beef',
outdir = './Zn2Mo2',
filplot = 'Zn2Mo2-wf.dat',
plot_num = 11
/
