&DOS
prefix = 'Zn2Mo2_beef',
outdir = './Zn2Mo2',
degauss = 0.001,
DeltaE = 0.001,
fildos = 'Zn2Mo2.dos.out',
/
