&PROJWFC
prefix = 'Zn2Mo2_beef',
outdir = './Zn2Mo2',
degauss = 0.001,
DeltaE = 0.001,
filpdos = 'Zn2Mo2.pdos.out',
filproj = 'Zn2Mo2.proj.out',
/
