&PROJWFC
prefix = 'Zn2Nb2_beef',
outdir = './Zn2Nb2',
degauss = 0.001,
DeltaE = 0.001,
filpdos = 'Zn2Nb2.pdos.out',
filproj = 'Zn2Nb2.proj.out',
/
