&INPUTPP
prefix = 'Zn2Nb2_beef',
outdir = './Zn2Nb2',
filplot = 'Zn2Nb2-wf.dat',
plot_num = 11
/
