&DOS
prefix = 'Zn2Nb2_beef',
outdir = './Zn2Nb2',
degauss = 0.001,
DeltaE = 0.001,
fildos = 'Zn2Nb2.dos.out',
/
