&DOS
prefix = 'Zn2Os2_beef',
outdir = './Zn2Os2',
degauss = 0.001,
DeltaE = 0.001,
fildos = 'Zn2Os2.dos.out',
/
