&PROJWFC
prefix = 'Zn2Os2_beef',
outdir = './Zn2Os2',
degauss = 0.001,
DeltaE = 0.001,
filpdos = 'Zn2Os2.pdos.out',
filproj = 'Zn2Os2.proj.out',
/
