&INPUTPP
prefix = 'Zn2Os2_beef',
outdir = './Zn2Os2',
filplot = 'Zn2Os2-wf.dat',
plot_num = 11
/
