&DOS
prefix = 'Zn2Pd2_beef',
outdir = './Zn2Pd2',
degauss = 0.001,
DeltaE = 0.001,
fildos = 'Zn2Pd2.dos.out',
/
