&PROJWFC
prefix = 'Zn2Pt2_beef',
outdir = './Zn2Pt2',
degauss = 0.001,
DeltaE = 0.001,
filpdos = 'Zn2Pt2.pdos.out',
filproj = 'Zn2Pt2.proj.out',
/
