&DOS
prefix = 'Zn2Pt2_beef',
outdir = './Zn2Pt2',
degauss = 0.001,
DeltaE = 0.001,
fildos = 'Zn2Pt2.dos.out',
/
