&PROJWFC
prefix = 'Zn2Pd2_beef',
outdir = './Zn2Pd2',
degauss = 0.001,
DeltaE = 0.001,
filpdos = 'Zn2Pd2.pdos.out',
filproj = 'Zn2Pd2.proj.out',
/
