&INPUTPP
prefix = 'Zn2Pt2_beef',
outdir = './Zn2Pt2',
filplot = 'Zn2Pt2-wf.dat',
plot_num = 11
/
