&INPUTPP
prefix = 'Zn2Pd2_beef',
outdir = './Zn2Pd2',
filplot = 'Zn2Pd2-wf.dat',
plot_num = 11
/
