&PROJWFC
prefix = 'Zn2Rh2_beef',
outdir = './Zn2Rh2',
degauss = 0.001,
DeltaE = 0.001,
filpdos = 'Zn2Rh2.pdos.out',
filproj = 'Zn2Rh2.proj.out',
/
