&DOS
prefix = 'Zn2Ru2_beef',
outdir = './Zn2Ru2',
degauss = 0.001,
DeltaE = 0.001,
fildos = 'Zn2Ru2.dos.out',
/
