&DOS
prefix = 'Zn2Re2_beef',
outdir = './Zn2Re2',
degauss = 0.001,
DeltaE = 0.001,
fildos = 'Zn2Re2.dos.out',
/
