&INPUTPP
prefix = 'Zn2Ru2_beef',
outdir = './Zn2Ru2',
filplot = 'Zn2Ru2-wf.dat',
plot_num = 11
/
