&INPUTPP
prefix = 'Zn2Rh2_beef',
outdir = './Zn2Rh2',
filplot = 'Zn2Rh2-wf.dat',
plot_num = 11
/
