&DOS
prefix = 'Zn2Rh2_beef',
outdir = './Zn2Rh2',
degauss = 0.001,
DeltaE = 0.001,
fildos = 'Zn2Rh2.dos.out',
/
