&INPUTPP
prefix = 'Zn2Re2_beef',
outdir = './Zn2Re2',
filplot = 'Zn2Re2-wf.dat',
plot_num = 11
/
