&PROJWFC
prefix = 'Zn2Ru2_beef',
outdir = './Zn2Ru2',
degauss = 0.001,
DeltaE = 0.001,
filpdos = 'Zn2Ru2.pdos.out',
filproj = 'Zn2Ru2.proj.out',
/
