&PROJWFC
prefix = 'Zn2Re2_beef',
outdir = './Zn2Re2',
degauss = 0.001,
DeltaE = 0.001,
filpdos = 'Zn2Re2.pdos.out',
filproj = 'Zn2Re2.proj.out',
/
