&PROJWFC
prefix = 'Zn2Tc2_beef',
outdir = './Zn2Tc2',
degauss = 0.001,
DeltaE = 0.001,
filpdos = 'Zn2Tc2.pdos.out',
filproj = 'Zn2Tc2.proj.out',
/
