&INPUTPP
prefix = 'Zn2Tc2_beef',
outdir = './Zn2Tc2',
filplot = 'Zn2Tc2-wf.dat',
plot_num = 11
/
