&DOS
prefix = 'Zn2Ta2_beef',
outdir = './Zn2Ta2',
degauss = 0.001,
DeltaE = 0.001,
fildos = 'Zn2Ta2.dos.out',
/
