&INPUTPP
prefix = 'Zn2Ta2_beef',
outdir = './Zn2Ta2',
filplot = 'Zn2Ta2-wf.dat',
plot_num = 11
/
