&PROJWFC
prefix = 'Zn2Ta2_beef',
outdir = './Zn2Ta2',
degauss = 0.001,
DeltaE = 0.001,
filpdos = 'Zn2Ta2.pdos.out',
filproj = 'Zn2Ta2.proj.out',
/
