&DOS
prefix = 'Zn2Tc2_beef',
outdir = './Zn2Tc2',
degauss = 0.001,
DeltaE = 0.001,
fildos = 'Zn2Tc2.dos.out',
/
