&DOS
prefix = 'Zn2W2_beef',
outdir = './Zn2W2',
degauss = 0.001,
DeltaE = 0.001,
fildos = 'Zn2W2.dos.out',
/
