&INPUTPP
prefix = 'Zn2W2_beef',
outdir = './Zn2W2',
filplot = 'Zn2W2-wf.dat',
plot_num = 11
/
