&PROJWFC
prefix = 'Zn2W2_beef',
outdir = './Zn2W2',
degauss = 0.001,
DeltaE = 0.001,
filpdos = 'Zn2W2.pdos.out',
filproj = 'Zn2W2.proj.out',
/
