&INPUTPP
prefix = 'Zn2Y2_beef',
outdir = './Zn2Y2',
filplot = 'Zn2Y2-wf.dat',
plot_num = 11
/
