&DOS
prefix = 'Zn2Y2_beef',
outdir = './Zn2Y2',
degauss = 0.001,
DeltaE = 0.001,
fildos = 'Zn2Y2.dos.out',
/
