&PROJWFC
prefix = 'Zn2Y2_beef',
outdir = './Zn2Y2',
degauss = 0.001,
DeltaE = 0.001,
filpdos = 'Zn2Y2.pdos.out',
filproj = 'Zn2Y2.proj.out',
/
