&INPUTPP
prefix = 'Zn2Zr2_beef',
outdir = './Zn2Zr2',
filplot = 'Zn2Zr2-wf.dat',
plot_num = 11
/
