&PROJWFC
prefix = 'Zn2Zr2_beef',
outdir = './Zn2Zr2',
degauss = 0.001,
DeltaE = 0.001,
filpdos = 'Zn2Zr2.pdos.out',
filproj = 'Zn2Zr2.proj.out',
/
