&DOS
prefix = 'Zn2Zr2_beef',
outdir = './Zn2Zr2',
degauss = 0.001,
DeltaE = 0.001,
fildos = 'Zn2Zr2.dos.out',
/
