&CONTROL
   calculation      = 'scf'
   tstress          = .true.
   tprnfor          = .true.
   outdir           = './Fe2Pd2'
   prefix           = 'Fe2Pd2_beef'
   pseudo_dir       = '../pseudo'
   tefield          = .true.
   dipfield         = .true.
/
&SYSTEM
   celldm(1)        = 1.889726
   ecutwfc          = 55.123963237125
   ecutrho          = 551.23963237125
   nosym            = .true.
   occupations      = 'smearing'
   degauss          = 0.01D0
   smearing         = 'fd'
   input_dft        = 'BEEF-vdW'
   edir             = 3
   emaxpos          = 0.95
   eopreg           = 0.05
   eamp             = 0.01
   nspin            = 2
   starting_magnetization(1) = 0.375
   starting_magnetization(2) = 0.0
   ntyp             = 2
   nat              = 12
   ibrav            = 0
/
&ELECTRONS
   electron_maxstep = 500
   conv_thr         = 1e-05
   mixing_mode      = 'plain'
   mixing_beta      = 0.1
   mixing_ndim      = 10
/
&IONS
/
&CELL
/

ATOMIC_SPECIES
Fe  55.845 Fe.pbe-n-rrkjus_psl.1.0.0.UPF
Pd  106.42 Pd.pbe-n-rrkjus_psl.1.0.0.UPF

K_POINTS automatic
12 12 1  0 0 0

CELL_PARAMETERS alat
5.41615300000000 0.00000000000000 0.00000000000000
2.65541900000000 4.72053700000000 0.00000000000000
0.00000000000000 0.00000000000000 24.43583400000000

ATOMIC_POSITIONS alat
Fe  0.0000000000 0.0000000000 10.0000000000
Fe  4.0357859000 2.3602685000 10.0000000000
Pd  2.7080766000 0.0000000000 10.0000000000
Pd  1.3277093000 2.3602685000 10.0000000000
Fe  5.4161533000 3.1675555000 12.2179168000
Fe  1.3803674000 0.8072870000 12.2179168000
Pd  2.7080766000 3.1675555000 12.2179168000
Pd  4.0884440000 0.8072870000 12.2179168000
Fe  2.7509504000 1.6088510000 14.3382975000
Fe  6.7867137000 3.9691071000 14.3383480000
Pd  5.5127232000 1.6403176000 14.4475716000
Pd  4.1324103000 4.0004932000 14.4475711000

