&INPUTPP
prefix = 'Cr2Au2_beef',
outdir = './Cr2Au2',
filplot = 'Cr2Au2-wf.dat',
plot_num = 11
/
