&PROJWFC
prefix = 'Cr2Au2_beef',
outdir = './Cr2Au2',
degauss = 0.001,
DeltaE = 0.001,
filpdos = 'Cr2Au2.pdos.out',
filproj = 'Cr2Au2.proj.out',
/
