&PROJWFC
prefix = 'Cr2Cd2_beef',
outdir = './Cr2Cd2',
degauss = 0.001,
DeltaE = 0.001,
filpdos = 'Cr2Cd2.pdos.out',
filproj = 'Cr2Cd2.proj.out',
/
