&INPUTPP
prefix = 'Cr2Cd2_beef',
outdir = './Cr2Cd2',
filplot = 'Cr2Cd2-wf.dat',
plot_num = 11
/
