&DOS
prefix = 'Cr2Cd2_beef',
outdir = './Cr2Cd2',
degauss = 0.001,
DeltaE = 0.001,
fildos = 'Cr2Cd2.dos.out',
/
