&PROJWFC
prefix = 'Cr2Mo2_beef',
outdir = './Cr2Mo2',
degauss = 0.001,
DeltaE = 0.001,
filpdos = 'Cr2Mo2.pdos.out',
filproj = 'Cr2Mo2.proj.out',
/
