&DOS
prefix = 'Cr2Mo2_beef',
outdir = './Cr2Mo2',
degauss = 0.001,
DeltaE = 0.001,
fildos = 'Cr2Mo2.dos.out',
/
