&PROJWFC
prefix = 'Cr2Rh2_beef',
outdir = './Cr2Rh2',
degauss = 0.001,
DeltaE = 0.001,
filpdos = 'Cr2Rh2.pdos.out',
filproj = 'Cr2Rh2.proj.out',
/
