&INPUTPP
prefix = 'Cr2Rh2_beef',
outdir = './Cr2Rh2',
filplot = 'Cr2Rh2-wf.dat',
plot_num = 11
/
