&PROJWFC
prefix = 'Cr2Zr2_beef',
outdir = './Cr2Zr2',
degauss = 0.001,
DeltaE = 0.001,
filpdos = 'Cr2Zr2.pdos.out',
filproj = 'Cr2Zr2.proj.out',
/
