&DOS
prefix = 'Cr2Zr2_beef',
outdir = './Cr2Zr2',
degauss = 0.001,
DeltaE = 0.001,
fildos = 'Cr2Zr2.dos.out',
/
