&PROJWFC
prefix = 'Mo2Au2_beef',
outdir = './Mo2Au2',
degauss = 0.001,
DeltaE = 0.001,
filpdos = 'Mo2Au2.pdos.out',
filproj = 'Mo2Au2.proj.out',
/
