&DOS
prefix = 'Mo2Au2_beef',
outdir = './Mo2Au2',
degauss = 0.001,
DeltaE = 0.001,
fildos = 'Mo2Au2.dos.out',
/
