&PROJWFC
prefix = 'Mo2Rh2_beef',
outdir = './Mo2Rh2',
degauss = 0.001,
DeltaE = 0.001,
filpdos = 'Mo2Rh2.pdos.out',
filproj = 'Mo2Rh2.proj.out',
/
