&DOS
prefix = 'Mo2Rh2_beef',
outdir = './Mo2Rh2',
degauss = 0.001,
DeltaE = 0.001,
fildos = 'Mo2Rh2.dos.out',
/
