&DOS
prefix = 'Rh2Au2_beef',
outdir = './Rh2Au2',
degauss = 0.001,
DeltaE = 0.001,
fildos = 'Rh2Au2.dos.out',
/
