&INPUTPP
prefix = 'Rh2Au2_beef',
outdir = './Rh2Au2',
filplot = 'Rh2Au2-wf.dat',
plot_num = 11
/
