&INPUTPP
prefix = 'Rh2Cd2_beef',
outdir = './Rh2Cd2',
filplot = 'Rh2Cd2-wf.dat',
plot_num = 11
/
