&PROJWFC
prefix = 'Rh2Cd2_beef',
outdir = './Rh2Cd2',
degauss = 0.001,
DeltaE = 0.001,
filpdos = 'Rh2Cd2.pdos.out',
filproj = 'Rh2Cd2.proj.out',
/
