&INPUTPP
prefix = 'Sc2Cr2_beef',
outdir = './Sc2Cr2',
filplot = 'Sc2Cr2-wf.dat',
plot_num = 11
/
