&DOS
prefix = 'Sc2Mo2_beef',
outdir = './Sc2Mo2',
degauss = 0.001,
DeltaE = 0.001,
fildos = 'Sc2Mo2.dos.out',
/
