&INPUTPP
prefix = 'Sc2Zr2_beef',
outdir = './Sc2Zr2',
filplot = 'Sc2Zr2-wf.dat',
plot_num = 11
/
