&DOS
prefix = 'Zr2Au2_beef',
outdir = './Zr2Au2',
degauss = 0.001,
DeltaE = 0.001,
fildos = 'Zr2Au2.dos.out',
/
