&INPUTPP
prefix = 'Zr2Cd2_beef',
outdir = './Zr2Cd2',
filplot = 'Zr2Cd2-wf.dat',
plot_num = 11
/
