&PROJWFC
prefix = 'Zr2Cd2_beef',
outdir = './Zr2Cd2',
degauss = 0.001,
DeltaE = 0.001,
filpdos = 'Zr2Cd2.pdos.out',
filproj = 'Zr2Cd2.proj.out',
/
