&INPUTPP
prefix = 'Zr2Rh2_beef',
outdir = './Zr2Rh2',
filplot = 'Zr2Rh2-wf.dat',
plot_num = 11
/
