&CONTROL
   calculation      = 'scf'
   tstress          = .true.
   tprnfor          = .true.
   outdir           = './Ag2Ir2'
   prefix           = 'Ag2Ir2_beef'
   pseudo_dir       = '../pseudo'
   tefield          = .true.
   dipfield         = .true.
/
&SYSTEM
   celldm(1)        = 1.889726
   ecutwfc          = 55.123963237125
   ecutrho          = 551.23963237125
   nosym            = .true.
   occupations      = 'smearing'
   degauss          = 0.01D0
   smearing         = 'fd'
   input_dft        = 'BEEF-vdW'
   edir             = 3
   emaxpos          = 0.95
   eopreg           = 0.05
   eamp             = 0.01
   ntyp             = 2
   nat              = 12
   ibrav            = 0
/
&ELECTRONS
   electron_maxstep = 500
   conv_thr         = 1e-05
   mixing_mode      = 'plain'
   mixing_beta      = 0.1
   mixing_ndim      = 10
/
&IONS
/
&CELL
/

ATOMIC_SPECIES
Ag 107.8682 Ag.pbe-n-rrkjus_psl.1.0.0.UPF
Ir 192.217 Ir.pbe-n-rrkjus_psl.0.2.3.UPF

K_POINTS automatic
12 12 1  0 0 0

CELL_PARAMETERS alat
5.42343800000000 0.00000000000000 0.00000000000000
-2.71171900000000 5.23530800000000 0.00000000000000
0.00000000000000 0.00000000000000 24.63921100000000

ATOMIC_POSITIONS alat
Ag 0.0000000000 0.0000000000 10.0000000000 
Ag 2.7117192000 0.0000000000 10.0000000000 
Ir 1.3558596000 2.6176542000 10.0000000000 
Ir -1.3558596000 2.6176542000 10.0000000000 
Ag 2.7117192000 1.4045822000 12.3196055000 
Ag -0.0000000000 1.4045822000 12.3196055000 
Ir -1.3558596000 4.0222364000 12.3196055000 
Ir 1.3558596000 4.0222364000 12.3196055000 
Ag 0.0003130000 2.5637300000 14.8943626000 
Ag 2.7120548000 2.5637313000 14.8943628000 
Ir 1.3562241000 5.1202778000 14.5398625000 
Ir -1.3554969000 5.1202735000 14.5398552000 

