&CONTROL
   calculation      = 'scf'
   tstress          = .true.
   tprnfor          = .true.
   outdir           = './Cd2Ir2'
   prefix           = 'Cd2Ir2_beef'
   pseudo_dir       = '../pseudo'
   tefield          = .true.
   dipfield         = .true.
/
&SYSTEM
   celldm(1)        = 1.889726
   ecutwfc          = 55.123963237125
   ecutrho          = 551.23963237125
   nosym            = .true.
   occupations      = 'smearing'
   degauss          = 0.01D0
   smearing         = 'fd'
   input_dft        = 'BEEF-vdW'
   edir             = 3
   emaxpos          = 0.95
   eopreg           = 0.05
   eamp             = 0.01
   ntyp             = 2
   nat              = 12
   ibrav            = 0
/
&ELECTRONS
   electron_maxstep = 500
   conv_thr         = 1e-05
   mixing_mode      = 'plain'
   mixing_beta      = 0.1
   mixing_ndim      = 10
/
&IONS
/
&CELL
/

ATOMIC_SPECIES
Cd 112.414 Cd.pbe-n-rrkjus_psl.1.0.0.UPF
Ir 192.217 Ir.pbe-n-rrkjus_psl.0.2.3.UPF

K_POINTS automatic
12 12 1  0 0 0

CELL_PARAMETERS alat
5.81758400000000 0.00000000000000 0.00000000000000
2.90878800000000 5.03817800000000 0.00000000000000
0.00000000000000 0.00000000000000 24.75003900000000

ATOMIC_POSITIONS alat
Cd 0.0000000000 0.0000000000 10.0000000000 
Cd 4.3631858000 2.5190891000 10.0000000000 
Ir 2.9087920000 0.0000000000 10.0000000000 
Ir 1.4543938000 2.5190891000 10.0000000000 
Cd 5.8175841000 3.3587872000 12.3750194000 
Cd 1.4543983000 0.8396981000 12.3750194000 
Ir 2.9087920000 3.3587872000 12.3750194000 
Ir 4.3631903000 0.8396981000 12.3750194000 
Cd 2.6195840000 1.5124386000 15.0610264000 
Cd 6.9827828000 4.0315207000 15.0610341000 
Ir 5.4709635000 1.4792585000 14.5542263000 
Ir 4.0165511000 3.9983795000 14.5542142000 

