&CONTROL
   calculation      = 'scf'
   tstress          = .true.
   tprnfor          = .true.
   outdir           = './Ir2Au2'
   prefix           = 'Ir2Au2_beef'
   pseudo_dir       = '../pseudo'
   tefield          = .true.
   dipfield         = .true.
/
&SYSTEM
   celldm(1)        = 1.889726
   ecutwfc          = 55.123963237125
   ecutrho          = 551.23963237125
   nosym            = .true.
   occupations      = 'smearing'
   degauss          = 0.01D0
   smearing         = 'fd'
   input_dft        = 'BEEF-vdW'
   edir             = 3
   emaxpos          = 0.95
   eopreg           = 0.05
   eamp             = 0.01
   ntyp             = 2
   nat              = 12
   ibrav            = 0
/
&ELECTRONS
   electron_maxstep = 500
   conv_thr         = 1e-05
   mixing_mode      = 'plain'
   mixing_beta      = 0.1
   mixing_ndim      = 10
/
&IONS
/
&CELL
/

ATOMIC_SPECIES
Ir 192.217 Ir.pbe-n-rrkjus_psl.0.2.3.UPF
Au 196.966569 Au.pbe-n-rrkjus_psl.1.0.0.UPF

K_POINTS automatic
12 12 1  0 0 0

CELL_PARAMETERS alat
5.64348400000000 0.00000000000000 0.00000000000000
-2.82174200000000 4.98845000000000 0.00000000000000
0.00000000000000 0.00000000000000 24.65385400000000

ATOMIC_POSITIONS alat
Ir 0.0000000000 0.0000000000 10.0000000000 
Ir 2.8217420000 0.0000000000 10.0000000000 
Au 1.4108710000 2.4942248000 10.0000000000 
Au -1.4108710000 2.4942248000 10.0000000000 
Ir 2.8217420000 1.5961328000 12.3269268000 
Ir -0.0000000000 1.5961328000 12.3269268000 
Au -1.4108710000 4.0903576000 12.3269268000 
Au 1.4108710000 4.0903576000 12.3269268000 
Ir -0.0000007000 2.6741982000 14.5735499000 
Ir 2.8217363000 2.6742112000 14.5735527000 
Au 4.2326270000 0.2214566000 14.9624147000 
Au 1.4108460000 0.2214473000 14.9624197000 

