&CONTROL
   calculation      = 'scf'
   tstress          = .true.
   tprnfor          = .true.
   outdir           = './Nb2Ir2'
   prefix           = 'Nb2Ir2_beef'
   pseudo_dir       = '../pseudo'
   tefield          = .true.
   dipfield         = .true.
/
&SYSTEM
   celldm(1)        = 1.889726
   ecutwfc          = 55.123963237125
   ecutrho          = 551.23963237125
   nosym            = .true.
   occupations      = 'smearing'
   degauss          = 0.01D0
   smearing         = 'fd'
   input_dft        = 'BEEF-vdW'
   edir             = 3
   emaxpos          = 0.95
   eopreg           = 0.05
   eamp             = 0.01
   ntyp             = 2
   nat              = 12
   ibrav            = 0
/
&ELECTRONS
   electron_maxstep = 500
   conv_thr         = 1e-05
   mixing_mode      = 'plain'
   mixing_beta      = 0.1
   mixing_ndim      = 10
/
&IONS
/
&CELL
/

ATOMIC_SPECIES
Nb 92.90637 Nb.pbe-spn-rrkjus_psl.1.0.0.UPF
Ir 192.217 Ir.pbe-n-rrkjus_psl.0.2.3.UPF

K_POINTS automatic
12 12 1  0 0 0

CELL_PARAMETERS alat
5.63352500000000 0.00000000000000 0.00000000000000
2.69591700000000 4.94657900000000 0.00000000000000
0.00000000000000 0.00000000000000 24.62873600000000

ATOMIC_POSITIONS alat
Nb 0.0000000000 0.0000000000 10.0000000000 
Nb 4.1647210000 2.4732893000 10.0000000000 
Ir 2.8167627000 0.0000000000 10.0000000000 
Ir 1.3479584000 2.4732893000 10.0000000000 
Nb 5.6335253000 3.3455633000 12.3143678000 
Nb 1.4688043000 0.8722740000 12.3143678000 
Ir 2.8167627000 3.3455633000 12.3143678000 
Ir 4.2855669000 0.8722740000 12.3143678000 
Nb 3.0133040000 1.7895003000 14.5628893000 
Nb 7.1780242000 4.2627886000 14.5628903000 
Ir 5.8308410000 1.7899608000 14.5367735000 
Ir 4.3620378000 4.2632509000 14.5367753000 

