&CONTROL
   calculation      = 'scf'
   tstress          = .true.
   tprnfor          = .true.
   outdir           = './Sc2Ir2'
   prefix           = 'Sc2Ir2_beef'
   pseudo_dir       = '../pseudo'
   tefield          = .true.
   dipfield         = .true.
/
&SYSTEM
   celldm(1)        = 1.889726
   ecutwfc          = 55.123963237125
   ecutrho          = 551.23963237125
   nosym            = .true.
   occupations      = 'smearing'
   degauss          = 0.01D0
   smearing         = 'fd'
   input_dft        = 'BEEF-vdW'
   edir             = 3
   emaxpos          = 0.95
   eopreg           = 0.05
   eamp             = 0.01
   ntyp             = 2
   nat              = 12
   ibrav            = 0
/
&ELECTRONS
   electron_maxstep = 500
   conv_thr         = 1e-05
   mixing_mode      = 'plain'
   mixing_beta      = 0.1
   mixing_ndim      = 10
/
&IONS
/
&CELL
/

ATOMIC_SPECIES
Sc 44.955908 Sc.pbe-spn-rrkjus_psl.1.0.0.UPF
Ir 192.217 Ir.pbe-n-rrkjus_psl.0.2.3.UPF

K_POINTS automatic
12 12 1  0 0 0

CELL_PARAMETERS alat
5.58323000000000 0.00000000000000 0.00000000000000
1.78137000000000 5.29142500000000 0.00000000000000
0.00000000000000 0.00000000000000 24.53182700000000

ATOMIC_POSITIONS alat
Sc 0.0000000000 0.0000000000 10.0000000000 
Sc 3.6822999000 2.6457127000 10.0000000000 
Ir 2.7916151000 0.0000000000 10.0000000000 
Ir 0.8906848000 2.6457127000 10.0000000000 
Sc 5.5832303000 4.0115209000 12.2659134000 
Sc 1.9009303000 1.3658082000 12.2659134000 
Ir 2.7916151000 4.0115209000 12.2659134000 
Ir 4.6925455000 1.3658082000 12.2659134000 
Sc 3.7477350000 2.6927256000 14.6318606000 
Sc 0.0654432000 0.0470139000 14.6318623000 
Ir 0.9569067000 2.6932805000 14.4305839000 
Ir 2.8578413000 0.0475835000 14.4305864000 

