&CONTROL
   calculation      = 'scf'
   tstress          = .true.
   tprnfor          = .true.
   outdir           = './Tc2Cd2'
   prefix           = 'Tc2Cd2_beef'
   pseudo_dir       = '../pseudo'
   tefield          = .true.
   dipfield         = .true.
/
&SYSTEM
   celldm(1)        = 1.889726
   ecutwfc          = 55.123963237125
   ecutrho          = 551.23963237125
   nosym            = .true.
   occupations      = 'smearing'
   degauss          = 0.01D0
   smearing         = 'fd'
   input_dft        = 'BEEF-vdW'
   edir             = 3
   emaxpos          = 0.95
   eopreg           = 0.05
   eamp             = 0.01
   ntyp             = 2
   nat              = 12
   ibrav            = 0
/
&ELECTRONS
   electron_maxstep = 500
   conv_thr         = 1e-05
   mixing_mode      = 'plain'
   mixing_beta      = 0.1
   mixing_ndim      = 10
/
&IONS
/
&CELL
/

ATOMIC_SPECIES
Tc 97.90721 Tc.pbe-spn-rrkjus_psl.0.3.0.UPF
Cd 112.414 Cd.pbe-n-rrkjus_psl.1.0.0.UPF

K_POINTS automatic
12 12 1  0 0 0

CELL_PARAMETERS alat
5.50654400000000 0.00000000000000 0.00000000000000
-2.75327200000000 5.34592000000000 0.00000000000000
0.00000000000000 0.00000000000000 24.72007900000000

ATOMIC_POSITIONS alat
Tc 0.0000000000 0.0000000000 10.0000000000 
Tc 2.7532722000 0.0000000000 10.0000000000 
Cd 1.3766361000 2.6729600000 10.0000000000 
Cd -1.3766361000 2.6729600000 10.0000000000 
Tc 2.7532722000 1.4179988000 12.3600397000 
Tc 0.0000000000 1.4179988000 12.3600397000 
Cd -1.3766361000 4.0909587000 12.3600397000 
Cd 1.3766361000 4.0909587000 12.3600397000 
Tc 0.0000357000 2.3251431000 14.4251747000 
Tc 2.7533396000 2.3251842000 14.4252634000 
Cd 1.3764467000 5.1262212000 15.1761938000 
Cd -1.3767850000 5.1262667000 15.1761769000 

