&CONTROL
   calculation      = 'scf'
   tstress          = .true.
   tprnfor          = .true.
   outdir           = './Tc2Pt2'
   prefix           = 'Tc2Pt2_beef'
   pseudo_dir       = '../pseudo'
   tefield          = .true.
   dipfield         = .true.
/
&SYSTEM
   celldm(1)        = 1.889726
   ecutwfc          = 55.123963237125
   ecutrho          = 551.23963237125
   nosym            = .true.
   occupations      = 'smearing'
   degauss          = 0.01D0
   smearing         = 'fd'
   input_dft        = 'BEEF-vdW'
   edir             = 3
   emaxpos          = 0.95
   eopreg           = 0.05
   eamp             = 0.01
   ntyp             = 2
   nat              = 12
   ibrav            = 0
/
&ELECTRONS
   electron_maxstep = 500
   conv_thr         = 1e-05
   mixing_mode      = 'plain'
   mixing_beta      = 0.1
   mixing_ndim      = 10
/
&IONS
/
&CELL
/

ATOMIC_SPECIES
Tc 97.90721 Tc.pbe-spn-rrkjus_psl.0.3.0.UPF
Pt 195.084 Pt.pbe-n-rrkjus_psl.1.0.0.UPF

K_POINTS automatic
12 12 1  0 0 0

CELL_PARAMETERS alat
5.43436800000000 0.00000000000000 0.00000000000000
-2.71718400000000 4.88225200000000 0.00000000000000
0.00000000000000 0.00000000000000 24.51497400000000

ATOMIC_POSITIONS alat
Tc 0.0000000000 0.0000000000 10.0000000000 
Tc 2.7171838000 0.0000000000 10.0000000000 
Pt 1.3585919000 2.4411259000 10.0000000000 
Pt -1.3585919000 2.4411259000 10.0000000000 
Tc 2.7171838000 1.5122300000 12.2574871000 
Tc -0.0000000000 1.5122300000 12.2574871000 
Pt -1.3585919000 3.9533559000 12.2574871000 
Pt 1.3585919000 3.9533559000 12.2574871000 
Tc 0.0000734000 3.0475992000 14.4299739000 
Tc 2.7172612000 3.0476334000 14.4300441000 
Pt 4.0758176000 0.7121211000 14.4816070000 
Pt 1.3586103000 0.7121209000 14.4816078000 

