&CONTROL
   calculation      = 'scf'
   tstress          = .true.
   tprnfor          = .true.
   outdir           = './Tc2Ru2'
   prefix           = 'Tc2Ru2_beef'
   pseudo_dir       = '../pseudo'
   tefield          = .true.
   dipfield         = .true.
/
&SYSTEM
   celldm(1)        = 1.889726
   ecutwfc          = 55.123963237125
   ecutrho          = 551.23963237125
   nosym            = .true.
   occupations      = 'smearing'
   degauss          = 0.01D0
   smearing         = 'fd'
   input_dft        = 'BEEF-vdW'
   edir             = 3
   emaxpos          = 0.95
   eopreg           = 0.05
   eamp             = 0.01
   ntyp             = 2
   nat              = 12
   ibrav            = 0
/
&ELECTRONS
   electron_maxstep = 500
   conv_thr         = 1e-05
   mixing_mode      = 'plain'
   mixing_beta      = 0.1
   mixing_ndim      = 10
/
&IONS
/
&CELL
/

ATOMIC_SPECIES
Tc 97.90721 Tc.pbe-spn-rrkjus_psl.0.3.0.UPF
Ru 101.07 Ru.pbe-spn-rrkjus_psl.1.0.0.UPF

K_POINTS automatic
12 12 1  0 0 0

CELL_PARAMETERS alat
5.43827300000000 0.00000000000000 0.00000000000000
-2.71913700000000 4.71194600000000 0.00000000000000
0.00000000000000 0.00000000000000 24.44139700000000

ATOMIC_POSITIONS alat
Tc 0.0000000000 0.0000000000 10.0000000000 
Tc 2.7191366000 0.0000000000 10.0000000000 
Ru 1.3595683000 2.3559729000 10.0000000000 
Ru -1.3595683000 2.3559729000 10.0000000000 
Tc 2.7191366000 1.5691402000 12.2206987000 
Tc -0.0000000000 1.5691402000 12.2206987000 
Ru -1.3595683000 3.9251131000 12.2206987000 
Ru 1.3595683000 3.9251131000 12.2206987000 
Tc -0.0000002000 3.1378224000 14.3283309000 
Tc 2.7191360000 3.1378219000 14.3283307000 
Ru 4.0787038000 0.7944081000 14.3517659000 
Ru 1.3595677000 0.7944083000 14.3517663000 

