&CONTROL
   calculation      = 'scf'
   tstress          = .true.
   tprnfor          = .true.
   outdir           = './Tc2Y2'
   prefix           = 'Tc2Y2_beef'
   pseudo_dir       = '../pseudo'
   tefield          = .true.
   dipfield         = .true.
/
&SYSTEM
   celldm(1)        = 1.889726
   ecutwfc          = 55.123963237125
   ecutrho          = 551.23963237125
   nosym            = .true.
   occupations      = 'smearing'
   degauss          = 0.01D0
   smearing         = 'fd'
   input_dft        = 'BEEF-vdW'
   edir             = 3
   emaxpos          = 0.95
   eopreg           = 0.05
   eamp             = 0.01
   ntyp             = 2
   nat              = 12
   ibrav            = 0
/
&ELECTRONS
   electron_maxstep = 500
   conv_thr         = 1e-05
   mixing_mode      = 'plain'
   mixing_beta      = 0.1
   mixing_ndim      = 10
/
&IONS
/
&CELL
/

ATOMIC_SPECIES
Tc 97.90721 Tc.pbe-spn-rrkjus_psl.0.3.0.UPF
Y 88.90584 Y.pbe-spn-rrkjus_psl.1.0.0.UPF

K_POINTS automatic
12 12 1  0 0 0

CELL_PARAMETERS alat
5.99288400000000 0.00000000000000 0.00000000000000
1.92693000000000 5.67464600000000 0.00000000000000
0.00000000000000 0.00000000000000 24.86972700000000

ATOMIC_POSITIONS alat
Tc 0.0000000000 0.0000000000 10.0000000000 
Tc 3.9599070000 2.8373228000 10.0000000000 
Y 2.9964421000 0.0000000000 10.0000000000 
Y 0.9634649000 2.8373228000 10.0000000000 
Tc 5.9928843000 4.2939765000 12.4348637000 
Tc 2.0329773000 1.4566536000 12.4348637000 
Y 2.9964421000 4.2939765000 12.4348637000 
Y 5.0294194000 1.4566536000 12.4348637000 
Tc 4.0665738000 2.9137621000 14.6694338000 
Tc 0.1066676000 0.0764241000 14.6694652000 
Y 1.0415344000 2.8932477000 14.9035525000 
Y 3.0744946000 0.0559382000 14.9035451000 

