&CONTROL
   calculation      = 'scf'
   tstress          = .true.
   tprnfor          = .true.
   outdir           = './Ti2Ir2'
   prefix           = 'Ti2Ir2_beef'
   pseudo_dir       = '../pseudo'
   tefield          = .true.
   dipfield         = .true.
/
&SYSTEM
   celldm(1)        = 1.889726
   ecutwfc          = 55.123963237125
   ecutrho          = 551.23963237125
   nosym            = .true.
   occupations      = 'smearing'
   degauss          = 0.01D0
   smearing         = 'fd'
   input_dft        = 'BEEF-vdW'
   edir             = 3
   emaxpos          = 0.95
   eopreg           = 0.05
   eamp             = 0.01
   ntyp             = 2
   nat              = 12
   ibrav            = 0
/
&ELECTRONS
   electron_maxstep = 500
   conv_thr         = 1e-05
   mixing_mode      = 'plain'
   mixing_beta      = 0.1
   mixing_ndim      = 10
/
&IONS
/
&CELL
/

ATOMIC_SPECIES
Ti 47.867 Ti.pbe-spn-rrkjus_psl.1.0.0.UPF
Ir 192.217 Ir.pbe-n-rrkjus_psl.0.2.3.UPF

K_POINTS automatic
12 12 1  0 0 0

CELL_PARAMETERS alat
5.43454000000000 0.00000000000000 0.00000000000000
2.23591000000000 4.95327500000000 0.00000000000000
0.00000000000000 0.00000000000000 24.50204800000000

ATOMIC_POSITIONS alat
Ti 0.0000000000 0.0000000000 10.0000000000 
Ti 3.8352253000 2.4766374000 10.0000000000 
Ir 2.7172701000 0.0000000000 10.0000000000 
Ir 1.1179552000 2.4766374000 10.0000000000 
Ti 5.4345401000 3.5094119000 12.2510241000 
Ti 1.5993148000 1.0327745000 12.2510241000 
Ir 2.7172701000 3.5094119000 12.2510241000 
Ir 4.3165849000 1.0327745000 12.2510241000 
Ti 3.5372564000 2.2842209000 14.5336016000 
Ti 7.3724836000 4.7608569000 14.5336140000 
Ir 6.2600357000 2.2877789000 14.3259622000 
Ir 4.6607196000 4.7644143000 14.3259584000 

