&DOS
prefix = 'Fe2Ir2_beef',
outdir = './Fe2Ir2',
degauss = 0.001,
DeltaE = 0.001,
fildos = 'Fe2Ir2.dos.out',
/
