&PROJWFC
prefix = 'Fe2Ir2_beef',
outdir = './Fe2Ir2',
degauss = 0.001,
DeltaE = 0.001,
filpdos = 'Fe2Ir2.pdos.out',
filproj = 'Fe2Ir2.proj.out',
/
