&INPUTPP
prefix = 'Fe2Ir2_beef',
outdir = './Fe2Ir2',
filplot = 'Fe2Ir2-wf.dat',
plot_num = 11
/
