&PROJWFC
prefix = 'Fe2Ni2_beef',
outdir = './Fe2Ni2',
degauss = 0.001,
DeltaE = 0.001,
filpdos = 'Fe2Ni2.pdos.out',
filproj = 'Fe2Ni2.proj.out',
/
