&INPUTPP
prefix = 'Fe2Ni2_beef',
outdir = './Fe2Ni2',
filplot = 'Fe2Ni2-wf.dat',
plot_num = 11
/
