&DOS
prefix = 'Fe2Ni2_beef',
outdir = './Fe2Ni2',
degauss = 0.001,
DeltaE = 0.001,
fildos = 'Fe2Ni2.dos.out',
/
