&DOS
prefix = 'Fe2Os2_beef',
outdir = './Fe2Os2',
degauss = 0.001,
DeltaE = 0.001,
fildos = 'Fe2Os2.dos.out',
/
