&PROJWFC
prefix = 'Fe2Os2_beef',
outdir = './Fe2Os2',
degauss = 0.001,
DeltaE = 0.001,
filpdos = 'Fe2Os2.pdos.out',
filproj = 'Fe2Os2.proj.out',
/
