&INPUTPP
prefix = 'Fe2Os2_beef',
outdir = './Fe2Os2',
filplot = 'Fe2Os2-wf.dat',
plot_num = 11
/
