&INPUTPP
prefix = 'Ag2Ir2_beef',
outdir = './Ag2Ir2',
filplot = 'Ag2Ir2-wf.dat',
plot_num = 11
/
