&PROJWFC
prefix = 'Ag2Ir2_beef',
outdir = './Ag2Ir2',
degauss = 0.001,
DeltaE = 0.001,
filpdos = 'Ag2Ir2.pdos.out',
filproj = 'Ag2Ir2.proj.out',
/
