&DOS
prefix = 'Ag2Ir2_beef',
outdir = './Ag2Ir2',
degauss = 0.001,
DeltaE = 0.001,
fildos = 'Ag2Ir2.dos.out',
/
