&INPUTPP
prefix = 'Cd2Ir2_beef',
outdir = './Cd2Ir2',
filplot = 'Cd2Ir2-wf.dat',
plot_num = 11
/
