&PROJWFC
prefix = 'Cd2Ir2_beef',
outdir = './Cd2Ir2',
degauss = 0.001,
DeltaE = 0.001,
filpdos = 'Cd2Ir2.pdos.out',
filproj = 'Cd2Ir2.proj.out',
/
