&DOS
prefix = 'Cd2Ir2_beef',
outdir = './Cd2Ir2',
degauss = 0.001,
DeltaE = 0.001,
fildos = 'Cd2Ir2.dos.out',
/
