&DOS
prefix = 'Cr2Ir2_beef',
outdir = './Cr2Ir2',
degauss = 0.001,
DeltaE = 0.001,
fildos = 'Cr2Ir2.dos.out',
/
