&PROJWFC
prefix = 'Cr2Ir2_beef',
outdir = './Cr2Ir2',
degauss = 0.001,
DeltaE = 0.001,
filpdos = 'Cr2Ir2.pdos.out',
filproj = 'Cr2Ir2.proj.out',
/
