&INPUTPP
prefix = 'Cr2Ir2_beef',
outdir = './Cr2Ir2',
filplot = 'Cr2Ir2-wf.dat',
plot_num = 11
/
