&PROJWFC
prefix = 'Cr2Tc2_beef',
outdir = './Cr2Tc2',
degauss = 0.001,
DeltaE = 0.001,
filpdos = 'Cr2Tc2.pdos.out',
filproj = 'Cr2Tc2.proj.out',
/
