&DOS
prefix = 'Cr2Tc2_beef',
outdir = './Cr2Tc2',
degauss = 0.001,
DeltaE = 0.001,
fildos = 'Cr2Tc2.dos.out',
/
