&INPUTPP
prefix = 'Cr2Tc2_beef',
outdir = './Cr2Tc2',
filplot = 'Cr2Tc2-wf.dat',
plot_num = 11
/
