&PROJWFC
prefix = 'Cu2Ir2_beef',
outdir = './Cu2Ir2',
degauss = 0.001,
DeltaE = 0.001,
filpdos = 'Cu2Ir2.pdos.out',
filproj = 'Cu2Ir2.proj.out',
/
