&INPUTPP
prefix = 'Cu2Ir2_beef',
outdir = './Cu2Ir2',
filplot = 'Cu2Ir2-wf.dat',
plot_num = 11
/
