&DOS
prefix = 'Cu2Ir2_beef',
outdir = './Cu2Ir2',
degauss = 0.001,
DeltaE = 0.001,
fildos = 'Cu2Ir2.dos.out',
/
