&PROJWFC
prefix = 'Cu2Tc2_beef',
outdir = './Cu2Tc2',
degauss = 0.001,
DeltaE = 0.001,
filpdos = 'Cu2Tc2.pdos.out',
filproj = 'Cu2Tc2.proj.out',
/
