&INPUTPP
prefix = 'Cu2Tc2_beef',
outdir = './Cu2Tc2',
filplot = 'Cu2Tc2-wf.dat',
plot_num = 11
/
