&DOS
prefix = 'Cu2Tc2_beef',
outdir = './Cu2Tc2',
degauss = 0.001,
DeltaE = 0.001,
fildos = 'Cu2Tc2.dos.out',
/
