&PROJWFC
prefix = 'Ir2Au2_beef',
outdir = './Ir2Au2',
degauss = 0.001,
DeltaE = 0.001,
filpdos = 'Ir2Au2.pdos.out',
filproj = 'Ir2Au2.proj.out',
/
