&DOS
prefix = 'Ir2Au2_beef',
outdir = './Ir2Au2',
degauss = 0.001,
DeltaE = 0.001,
fildos = 'Ir2Au2.dos.out',
/
