&INPUTPP
prefix = 'Ir2Au2_beef',
outdir = './Ir2Au2',
filplot = 'Ir2Au2-wf.dat',
plot_num = 11
/
