&DOS
prefix = 'Ir2Hg2_beef',
outdir = './Ir2Hg2',
degauss = 0.001,
DeltaE = 0.001,
fildos = 'Ir2Hg2.dos.out',
/
