&PROJWFC
prefix = 'Ir2Hg2_beef',
outdir = './Ir2Hg2',
degauss = 0.001,
DeltaE = 0.001,
filpdos = 'Ir2Hg2.pdos.out',
filproj = 'Ir2Hg2.proj.out',
/
