&INPUTPP
prefix = 'Ir2Hg2_beef',
outdir = './Ir2Hg2',
filplot = 'Ir2Hg2-wf.dat',
plot_num = 11
/
