&PROJWFC
prefix = 'Ir2Pt2_beef',
outdir = './Ir2Pt2',
degauss = 0.001,
DeltaE = 0.001,
filpdos = 'Ir2Pt2.pdos.out',
filproj = 'Ir2Pt2.proj.out',
/
