&DOS
prefix = 'Ir2Pt2_beef',
outdir = './Ir2Pt2',
degauss = 0.001,
DeltaE = 0.001,
fildos = 'Ir2Pt2.dos.out',
/
