&INPUTPP
prefix = 'Ir2Pt2_beef',
outdir = './Ir2Pt2',
filplot = 'Ir2Pt2-wf.dat',
plot_num = 11
/
