&PROJWFC
prefix = 'Mo2Ir2_beef',
outdir = './Mo2Ir2',
degauss = 0.001,
DeltaE = 0.001,
filpdos = 'Mo2Ir2.pdos.out',
filproj = 'Mo2Ir2.proj.out',
/
