&INPUTPP
prefix = 'Mo2Ir2_beef',
outdir = './Mo2Ir2',
filplot = 'Mo2Ir2-wf.dat',
plot_num = 11
/
