&DOS
prefix = 'Mo2Ir2_beef',
outdir = './Mo2Ir2',
degauss = 0.001,
DeltaE = 0.001,
fildos = 'Mo2Ir2.dos.out',
/
