&PROJWFC
prefix = 'Mo2Tc2_beef',
outdir = './Mo2Tc2',
degauss = 0.001,
DeltaE = 0.001,
filpdos = 'Mo2Tc2.pdos.out',
filproj = 'Mo2Tc2.proj.out',
/
