&DOS
prefix = 'Mo2Tc2_beef',
outdir = './Mo2Tc2',
degauss = 0.001,
DeltaE = 0.001,
fildos = 'Mo2Tc2.dos.out',
/
