&INPUTPP
prefix = 'Mo2Tc2_beef',
outdir = './Mo2Tc2',
filplot = 'Mo2Tc2-wf.dat',
plot_num = 11
/
