&PROJWFC
prefix = 'Nb2Ir2_beef',
outdir = './Nb2Ir2',
degauss = 0.001,
DeltaE = 0.001,
filpdos = 'Nb2Ir2.pdos.out',
filproj = 'Nb2Ir2.proj.out',
/
