&INPUTPP
prefix = 'Nb2Ir2_beef',
outdir = './Nb2Ir2',
filplot = 'Nb2Ir2-wf.dat',
plot_num = 11
/
