&DOS
prefix = 'Nb2Ir2_beef',
outdir = './Nb2Ir2',
degauss = 0.001,
DeltaE = 0.001,
fildos = 'Nb2Ir2.dos.out',
/
