&PROJWFC
prefix = 'Nb2Tc2_beef',
outdir = './Nb2Tc2',
degauss = 0.001,
DeltaE = 0.001,
filpdos = 'Nb2Tc2.pdos.out',
filproj = 'Nb2Tc2.proj.out',
/
