&INPUTPP
prefix = 'Nb2Tc2_beef',
outdir = './Nb2Tc2',
filplot = 'Nb2Tc2-wf.dat',
plot_num = 11
/
