&PROJWFC
prefix = 'Os2Ir2_beef',
outdir = './Os2Ir2',
degauss = 0.001,
DeltaE = 0.001,
filpdos = 'Os2Ir2.pdos.out',
filproj = 'Os2Ir2.proj.out',
/
