&DOS
prefix = 'Os2Ir2_beef',
outdir = './Os2Ir2',
degauss = 0.001,
DeltaE = 0.001,
fildos = 'Os2Ir2.dos.out',
/
