&INPUTPP
prefix = 'Os2Ir2_beef',
outdir = './Os2Ir2',
filplot = 'Os2Ir2-wf.dat',
plot_num = 11
/
