&DOS
prefix = 'Re2Ir2_beef',
outdir = './Re2Ir2',
degauss = 0.001,
DeltaE = 0.001,
fildos = 'Re2Ir2.dos.out',
/
