&INPUTPP
prefix = 'Re2Ir2_beef',
outdir = './Re2Ir2',
filplot = 'Re2Ir2-wf.dat',
plot_num = 11
/
