&PROJWFC
prefix = 'Re2Ir2_beef',
outdir = './Re2Ir2',
degauss = 0.001,
DeltaE = 0.001,
filpdos = 'Re2Ir2.pdos.out',
filproj = 'Re2Ir2.proj.out',
/
