&PROJWFC
prefix = 'Rh2Ir2_beef',
outdir = './Rh2Ir2',
degauss = 0.001,
DeltaE = 0.001,
filpdos = 'Rh2Ir2.pdos.out',
filproj = 'Rh2Ir2.proj.out',
/
