&INPUTPP
prefix = 'Rh2Ir2_beef',
outdir = './Rh2Ir2',
filplot = 'Rh2Ir2-wf.dat',
plot_num = 11
/
