&DOS
prefix = 'Rh2Ir2_beef',
outdir = './Rh2Ir2',
degauss = 0.001,
DeltaE = 0.001,
fildos = 'Rh2Ir2.dos.out',
/
