&PROJWFC
prefix = 'Ru2Ir2_beef',
outdir = './Ru2Ir2',
degauss = 0.001,
DeltaE = 0.001,
filpdos = 'Ru2Ir2.pdos.out',
filproj = 'Ru2Ir2.proj.out',
/
