&INPUTPP
prefix = 'Ru2Ir2_beef',
outdir = './Ru2Ir2',
filplot = 'Ru2Ir2-wf.dat',
plot_num = 11
/
