&DOS
prefix = 'Ru2Ir2_beef',
outdir = './Ru2Ir2',
degauss = 0.001,
DeltaE = 0.001,
fildos = 'Ru2Ir2.dos.out',
/
