&DOS
prefix = 'Sc2Ir2_beef',
outdir = './Sc2Ir2',
degauss = 0.001,
DeltaE = 0.001,
fildos = 'Sc2Ir2.dos.out',
/
