&INPUTPP
prefix = 'Sc2Ir2_beef',
outdir = './Sc2Ir2',
filplot = 'Sc2Ir2-wf.dat',
plot_num = 11
/
