&PROJWFC
prefix = 'Sc2Ir2_beef',
outdir = './Sc2Ir2',
degauss = 0.001,
DeltaE = 0.001,
filpdos = 'Sc2Ir2.pdos.out',
filproj = 'Sc2Ir2.proj.out',
/
