&INPUTPP
prefix = 'Sc2Tc2_beef',
outdir = './Sc2Tc2',
filplot = 'Sc2Tc2-wf.dat',
plot_num = 11
/
