&PROJWFC
prefix = 'Sc2Tc2_beef',
outdir = './Sc2Tc2',
degauss = 0.001,
DeltaE = 0.001,
filpdos = 'Sc2Tc2.pdos.out',
filproj = 'Sc2Tc2.proj.out',
/
