&DOS
prefix = 'Sc2Tc2_beef',
outdir = './Sc2Tc2',
degauss = 0.001,
DeltaE = 0.001,
fildos = 'Sc2Tc2.dos.out',
/
