&PROJWFC
prefix = 'Tc2Ag2_beef',
outdir = './Tc2Ag2',
degauss = 0.001,
DeltaE = 0.001,
filpdos = 'Tc2Ag2.pdos.out',
filproj = 'Tc2Ag2.proj.out',
/
