&INPUTPP
prefix = 'Tc2Au2_beef',
outdir = './Tc2Au2',
filplot = 'Tc2Au2-wf.dat',
plot_num = 11
/
