&DOS
prefix = 'Tc2Ag2_beef',
outdir = './Tc2Ag2',
degauss = 0.001,
DeltaE = 0.001,
fildos = 'Tc2Ag2.dos.out',
/
