&DOS
prefix = 'Tc2Au2_beef',
outdir = './Tc2Au2',
degauss = 0.001,
DeltaE = 0.001,
fildos = 'Tc2Au2.dos.out',
/
