&INPUTPP
prefix = 'Tc2Ag2_beef',
outdir = './Tc2Ag2',
filplot = 'Tc2Ag2-wf.dat',
plot_num = 11
/
