&DOS
prefix = 'Tc2Cd2_beef',
outdir = './Tc2Cd2',
degauss = 0.001,
DeltaE = 0.001,
fildos = 'Tc2Cd2.dos.out',
/
