&INPUTPP
prefix = 'Tc2Cd2_beef',
outdir = './Tc2Cd2',
filplot = 'Tc2Cd2-wf.dat',
plot_num = 11
/
