&PROJWFC
prefix = 'Tc2Cd2_beef',
outdir = './Tc2Cd2',
degauss = 0.001,
DeltaE = 0.001,
filpdos = 'Tc2Cd2.pdos.out',
filproj = 'Tc2Cd2.proj.out',
/
