&PROJWFC
prefix = 'Tc2Hg2_beef',
outdir = './Tc2Hg2',
degauss = 0.001,
DeltaE = 0.001,
filpdos = 'Tc2Hg2.pdos.out',
filproj = 'Tc2Hg2.proj.out',
/
