&INPUTPP
prefix = 'Tc2Hg2_beef',
outdir = './Tc2Hg2',
filplot = 'Tc2Hg2-wf.dat',
plot_num = 11
/
