&DOS
prefix = 'Tc2Hg2_beef',
outdir = './Tc2Hg2',
degauss = 0.001,
DeltaE = 0.001,
fildos = 'Tc2Hg2.dos.out',
/
