&INPUTPP
prefix = 'Tc2Ir2_beef',
outdir = './Tc2Ir2',
filplot = 'Tc2Ir2-wf.dat',
plot_num = 11
/
