&PROJWFC
prefix = 'Tc2Ir2_beef',
outdir = './Tc2Ir2',
degauss = 0.001,
DeltaE = 0.001,
filpdos = 'Tc2Ir2.pdos.out',
filproj = 'Tc2Ir2.proj.out',
/
