&DOS
prefix = 'Tc2Ir2_beef',
outdir = './Tc2Ir2',
degauss = 0.001,
DeltaE = 0.001,
fildos = 'Tc2Ir2.dos.out',
/
