&INPUTPP
prefix = 'Tc2Os2_beef',
outdir = './Tc2Os2',
filplot = 'Tc2Os2-wf.dat',
plot_num = 11
/
