&DOS
prefix = 'Tc2Os2_beef',
outdir = './Tc2Os2',
degauss = 0.001,
DeltaE = 0.001,
fildos = 'Tc2Os2.dos.out',
/
