&PROJWFC
prefix = 'Tc2Os2_beef',
outdir = './Tc2Os2',
degauss = 0.001,
DeltaE = 0.001,
filpdos = 'Tc2Os2.pdos.out',
filproj = 'Tc2Os2.proj.out',
/
