&DOS
prefix = 'Tc2Pt2_beef',
outdir = './Tc2Pt2',
degauss = 0.001,
DeltaE = 0.001,
fildos = 'Tc2Pt2.dos.out',
/
