&INPUTPP
prefix = 'Tc2Pt2_beef',
outdir = './Tc2Pt2',
filplot = 'Tc2Pt2-wf.dat',
plot_num = 11
/
