&PROJWFC
prefix = 'Tc2Pt2_beef',
outdir = './Tc2Pt2',
degauss = 0.001,
DeltaE = 0.001,
filpdos = 'Tc2Pt2.pdos.out',
filproj = 'Tc2Pt2.proj.out',
/
