&PROJWFC
prefix = 'Tc2Ru2_beef',
outdir = './Tc2Ru2',
degauss = 0.001,
DeltaE = 0.001,
filpdos = 'Tc2Ru2.pdos.out',
filproj = 'Tc2Ru2.proj.out',
/
