&INPUTPP
prefix = 'Tc2Ru2_beef',
outdir = './Tc2Ru2',
filplot = 'Tc2Ru2-wf.dat',
plot_num = 11
/
