&INPUTPP
prefix = 'Tc2Re2_beef',
outdir = './Tc2Re2',
filplot = 'Tc2Re2-wf.dat',
plot_num = 11
/
