&DOS
prefix = 'Tc2Re2_beef',
outdir = './Tc2Re2',
degauss = 0.001,
DeltaE = 0.001,
fildos = 'Tc2Re2.dos.out',
/
