&PROJWFC
prefix = 'Tc2Re2_beef',
outdir = './Tc2Re2',
degauss = 0.001,
DeltaE = 0.001,
filpdos = 'Tc2Re2.pdos.out',
filproj = 'Tc2Re2.proj.out',
/
