&DOS
prefix = 'Tc2Rh2_beef',
outdir = './Tc2Rh2',
degauss = 0.001,
DeltaE = 0.001,
fildos = 'Tc2Rh2.dos.out',
/
