&PROJWFC
prefix = 'Tc2Rh2_beef',
outdir = './Tc2Rh2',
degauss = 0.001,
DeltaE = 0.001,
filpdos = 'Tc2Rh2.pdos.out',
filproj = 'Tc2Rh2.proj.out',
/
