&DOS
prefix = 'Tc2Ru2_beef',
outdir = './Tc2Ru2',
degauss = 0.001,
DeltaE = 0.001,
fildos = 'Tc2Ru2.dos.out',
/
