&INPUTPP
prefix = 'Tc2Rh2_beef',
outdir = './Tc2Rh2',
filplot = 'Tc2Rh2-wf.dat',
plot_num = 11
/
