&PROJWFC
prefix = 'Tc2Y2_beef',
outdir = './Tc2Y2',
degauss = 0.001,
DeltaE = 0.001,
filpdos = 'Tc2Y2.pdos.out',
filproj = 'Tc2Y2.proj.out',
/
