&DOS
prefix = 'Tc2Y2_beef',
outdir = './Tc2Y2',
degauss = 0.001,
DeltaE = 0.001,
fildos = 'Tc2Y2.dos.out',
/
