&INPUTPP
prefix = 'Tc2Y2_beef',
outdir = './Tc2Y2',
filplot = 'Tc2Y2-wf.dat',
plot_num = 11
/
