&PROJWFC
prefix = 'Ti2Ir2_beef',
outdir = './Ti2Ir2',
degauss = 0.001,
DeltaE = 0.001,
filpdos = 'Ti2Ir2.pdos.out',
filproj = 'Ti2Ir2.proj.out',
/
