&DOS
prefix = 'Ti2Ir2_beef',
outdir = './Ti2Ir2',
degauss = 0.001,
DeltaE = 0.001,
fildos = 'Ti2Ir2.dos.out',
/
