&INPUTPP
prefix = 'Ti2Ir2_beef',
outdir = './Ti2Ir2',
filplot = 'Ti2Ir2-wf.dat',
plot_num = 11
/
