&INPUTPP
prefix = 'Ti2Tc2_beef',
outdir = './Ti2Tc2',
filplot = 'Ti2Tc2-wf.dat',
plot_num = 11
/
