&PROJWFC
prefix = 'Ti2Tc2_beef',
outdir = './Ti2Tc2',
degauss = 0.001,
DeltaE = 0.001,
filpdos = 'Ti2Tc2.pdos.out',
filproj = 'Ti2Tc2.proj.out',
/
