&DOS
prefix = 'Ti2Tc2_beef',
outdir = './Ti2Tc2',
degauss = 0.001,
DeltaE = 0.001,
fildos = 'Ti2Tc2.dos.out',
/
