&DOS
prefix = 'Y2Ir2_beef',
outdir = './Y2Ir2',
degauss = 0.001,
DeltaE = 0.001,
fildos = 'Y2Ir2.dos.out',
/
