&PROJWFC
prefix = 'Y2Ir2_beef',
outdir = './Y2Ir2',
degauss = 0.001,
DeltaE = 0.001,
filpdos = 'Y2Ir2.pdos.out',
filproj = 'Y2Ir2.proj.out',
/
