&INPUTPP
prefix = 'Y2Ir2_beef',
outdir = './Y2Ir2',
filplot = 'Y2Ir2-wf.dat',
plot_num = 11
/
