&DOS
prefix = 'Zr2Ir2_beef',
outdir = './Zr2Ir2',
degauss = 0.001,
DeltaE = 0.001,
fildos = 'Zr2Ir2.dos.out',
/
