&PROJWFC
prefix = 'Zr2Ir2_beef',
outdir = './Zr2Ir2',
degauss = 0.001,
DeltaE = 0.001,
filpdos = 'Zr2Ir2.pdos.out',
filproj = 'Zr2Ir2.proj.out',
/
