&INPUTPP
prefix = 'Zr2Ir2_beef',
outdir = './Zr2Ir2',
filplot = 'Zr2Ir2-wf.dat',
plot_num = 11
/
