&DOS
prefix = 'Zr2Tc2_beef',
outdir = './Zr2Tc2',
degauss = 0.001,
DeltaE = 0.001,
fildos = 'Zr2Tc2.dos.out',
/
