&INPUTPP
prefix = 'Zr2Tc2_beef',
outdir = './Zr2Tc2',
filplot = 'Zr2Tc2-wf.dat',
plot_num = 11
/
