&PROJWFC
prefix = 'Zr2Tc2_beef',
outdir = './Zr2Tc2',
degauss = 0.001,
DeltaE = 0.001,
filpdos = 'Zr2Tc2.pdos.out',
filproj = 'Zr2Tc2.proj.out',
/
