&DOS
prefix = 'Fe2Ru2_beef',
outdir = './Fe2Ru2',
degauss = 0.001,
DeltaE = 0.001,
fildos = 'Fe2Ru2.dos.out',
/
