&INPUTPP
prefix = 'Fe2Ru2_beef',
outdir = './Fe2Ru2',
filplot = 'Fe2Ru2-wf.dat',
plot_num = 11
/
