&PROJWFC
prefix = 'Fe2Ru2_beef',
outdir = './Fe2Ru2',
degauss = 0.001,
DeltaE = 0.001,
filpdos = 'Fe2Ru2.pdos.out',
filproj = 'Fe2Ru2.proj.out',
/
