&INPUTPP
prefix = 'Fe2Tc2_beef',
outdir = './Fe2Tc2',
filplot = 'Fe2Tc2-wf.dat',
plot_num = 11
/
