&DOS
prefix = 'Fe2Tc2_beef',
outdir = './Fe2Tc2',
degauss = 0.001,
DeltaE = 0.001,
fildos = 'Fe2Tc2.dos.out',
/
