&DOS
prefix = 'Fe2Ta2_beef',
outdir = './Fe2Ta2',
degauss = 0.001,
DeltaE = 0.001,
fildos = 'Fe2Ta2.dos.out',
/
