&PROJWFC
prefix = 'Fe2Ta2_beef',
outdir = './Fe2Ta2',
degauss = 0.001,
DeltaE = 0.001,
filpdos = 'Fe2Ta2.pdos.out',
filproj = 'Fe2Ta2.proj.out',
/
