&INPUTPP
prefix = 'Fe2Ta2_beef',
outdir = './Fe2Ta2',
filplot = 'Fe2Ta2-wf.dat',
plot_num = 11
/
