&PROJWFC
prefix = 'Fe2Tc2_beef',
outdir = './Fe2Tc2',
degauss = 0.001,
DeltaE = 0.001,
filpdos = 'Fe2Tc2.pdos.out',
filproj = 'Fe2Tc2.proj.out',
/
