&INPUTPP
prefix = 'Ag2W2_beef',
outdir = './Ag2W2',
filplot = 'Ag2W2-wf.dat',
plot_num = 11
/
