&PROJWFC
prefix = 'Ag2W2_beef',
outdir = './Ag2W2',
degauss = 0.001,
DeltaE = 0.001,
filpdos = 'Ag2W2.pdos.out',
filproj = 'Ag2W2.proj.out',
/
