&DOS
prefix = 'Ag2W2_beef',
outdir = './Ag2W2',
degauss = 0.001,
DeltaE = 0.001,
fildos = 'Ag2W2.dos.out',
/
