&INPUTPP
prefix = 'Cd2W2_beef',
outdir = './Cd2W2',
filplot = 'Cd2W2-wf.dat',
plot_num = 11
/
