&DOS
prefix = 'Cd2W2_beef',
outdir = './Cd2W2',
degauss = 0.001,
DeltaE = 0.001,
fildos = 'Cd2W2.dos.out',
/
