&PROJWFC
prefix = 'Cd2W2_beef',
outdir = './Cd2W2',
degauss = 0.001,
DeltaE = 0.001,
filpdos = 'Cd2W2.pdos.out',
filproj = 'Cd2W2.proj.out',
/
