&INPUTPP
prefix = 'Cr2Pd2_beef',
outdir = './Cr2Pd2',
filplot = 'Cr2Pd2-wf.dat',
plot_num = 11
/
