&PROJWFC
prefix = 'Cr2Pd2_beef',
outdir = './Cr2Pd2',
degauss = 0.001,
DeltaE = 0.001,
filpdos = 'Cr2Pd2.pdos.out',
filproj = 'Cr2Pd2.proj.out',
/
