&DOS
prefix = 'Cr2Pd2_beef',
outdir = './Cr2Pd2',
degauss = 0.001,
DeltaE = 0.001,
fildos = 'Cr2Pd2.dos.out',
/
