&DOS
prefix = 'Cr2W2_beef',
outdir = './Cr2W2',
degauss = 0.001,
DeltaE = 0.001,
fildos = 'Cr2W2.dos.out',
/
