&PROJWFC
prefix = 'Cr2W2_beef',
outdir = './Cr2W2',
degauss = 0.001,
DeltaE = 0.001,
filpdos = 'Cr2W2.pdos.out',
filproj = 'Cr2W2.proj.out',
/
