&INPUTPP
prefix = 'Cr2W2_beef',
outdir = './Cr2W2',
filplot = 'Cr2W2-wf.dat',
plot_num = 11
/
