&PROJWFC
prefix = 'Cu2Pd2_beef',
outdir = './Cu2Pd2',
degauss = 0.001,
DeltaE = 0.001,
filpdos = 'Cu2Pd2.pdos.out',
filproj = 'Cu2Pd2.proj.out',
/
