&INPUTPP
prefix = 'Cu2Pd2_beef',
outdir = './Cu2Pd2',
filplot = 'Cu2Pd2-wf.dat',
plot_num = 11
/
