&DOS
prefix = 'Cu2Pd2_beef',
outdir = './Cu2Pd2',
degauss = 0.001,
DeltaE = 0.001,
fildos = 'Cu2Pd2.dos.out',
/
