&DOS
prefix = 'Cu2W2_beef',
outdir = './Cu2W2',
degauss = 0.001,
DeltaE = 0.001,
fildos = 'Cu2W2.dos.out',
/
