&INPUTPP
prefix = 'Cu2W2_beef',
outdir = './Cu2W2',
filplot = 'Cu2W2-wf.dat',
plot_num = 11
/
