&PROJWFC
prefix = 'Cu2W2_beef',
outdir = './Cu2W2',
degauss = 0.001,
DeltaE = 0.001,
filpdos = 'Cu2W2.pdos.out',
filproj = 'Cu2W2.proj.out',
/
