&DOS
prefix = 'Mo2Pd2_beef',
outdir = './Mo2Pd2',
degauss = 0.001,
DeltaE = 0.001,
fildos = 'Mo2Pd2.dos.out',
/
