&PROJWFC
prefix = 'Mo2Pd2_beef',
outdir = './Mo2Pd2',
degauss = 0.001,
DeltaE = 0.001,
filpdos = 'Mo2Pd2.pdos.out',
filproj = 'Mo2Pd2.proj.out',
/
