&INPUTPP
prefix = 'Mo2Pd2_beef',
outdir = './Mo2Pd2',
filplot = 'Mo2Pd2-wf.dat',
plot_num = 11
/
