&INPUTPP
prefix = 'Mo2W2_beef',
outdir = './Mo2W2',
filplot = 'Mo2W2-wf.dat',
plot_num = 11
/
