&PROJWFC
prefix = 'Mo2W2_beef',
outdir = './Mo2W2',
degauss = 0.001,
DeltaE = 0.001,
filpdos = 'Mo2W2.pdos.out',
filproj = 'Mo2W2.proj.out',
/
