&DOS
prefix = 'Mo2W2_beef',
outdir = './Mo2W2',
degauss = 0.001,
DeltaE = 0.001,
fildos = 'Mo2W2.dos.out',
/
