&PROJWFC
prefix = 'Nb2Pd2_beef',
outdir = './Nb2Pd2',
degauss = 0.001,
DeltaE = 0.001,
filpdos = 'Nb2Pd2.pdos.out',
filproj = 'Nb2Pd2.proj.out',
/
