&INPUTPP
prefix = 'Nb2Pd2_beef',
outdir = './Nb2Pd2',
filplot = 'Nb2Pd2-wf.dat',
plot_num = 11
/
