&DOS
prefix = 'Nb2Pd2_beef',
outdir = './Nb2Pd2',
degauss = 0.001,
DeltaE = 0.001,
fildos = 'Nb2Pd2.dos.out',
/
