&DOS
prefix = 'Nb2W2_beef',
outdir = './Nb2W2',
degauss = 0.001,
DeltaE = 0.001,
fildos = 'Nb2W2.dos.out',
/
