&PROJWFC
prefix = 'Nb2W2_beef',
outdir = './Nb2W2',
degauss = 0.001,
DeltaE = 0.001,
filpdos = 'Nb2W2.pdos.out',
filproj = 'Nb2W2.proj.out',
/
