&INPUTPP
prefix = 'Nb2W2_beef',
outdir = './Nb2W2',
filplot = 'Nb2W2-wf.dat',
plot_num = 11
/
