&INPUTPP
prefix = 'Pd2Ag2_beef',
outdir = './Pd2Ag2',
filplot = 'Pd2Ag2-wf.dat',
plot_num = 11
/
