&DOS
prefix = 'Pd2Ag2_beef',
outdir = './Pd2Ag2',
degauss = 0.001,
DeltaE = 0.001,
fildos = 'Pd2Ag2.dos.out',
/
