&INPUTPP
prefix = 'Pd2Au2_beef',
outdir = './Pd2Au2',
filplot = 'Pd2Au2-wf.dat',
plot_num = 11
/
