&DOS
prefix = 'Pd2Au2_beef',
outdir = './Pd2Au2',
degauss = 0.001,
DeltaE = 0.001,
fildos = 'Pd2Au2.dos.out',
/
