&PROJWFC
prefix = 'Pd2Au2_beef',
outdir = './Pd2Au2',
degauss = 0.001,
DeltaE = 0.001,
filpdos = 'Pd2Au2.pdos.out',
filproj = 'Pd2Au2.proj.out',
/
