&PROJWFC
prefix = 'Pd2Ag2_beef',
outdir = './Pd2Ag2',
degauss = 0.001,
DeltaE = 0.001,
filpdos = 'Pd2Ag2.pdos.out',
filproj = 'Pd2Ag2.proj.out',
/
