&PROJWFC
prefix = 'Pd2Cd2_beef',
outdir = './Pd2Cd2',
degauss = 0.001,
DeltaE = 0.001,
filpdos = 'Pd2Cd2.pdos.out',
filproj = 'Pd2Cd2.proj.out',
/
