&DOS
prefix = 'Pd2Cd2_beef',
outdir = './Pd2Cd2',
degauss = 0.001,
DeltaE = 0.001,
fildos = 'Pd2Cd2.dos.out',
/
