&INPUTPP
prefix = 'Pd2Cd2_beef',
outdir = './Pd2Cd2',
filplot = 'Pd2Cd2-wf.dat',
plot_num = 11
/
