&INPUTPP
prefix = 'Pd2Hg2_beef',
outdir = './Pd2Hg2',
filplot = 'Pd2Hg2-wf.dat',
plot_num = 11
/
