&PROJWFC
prefix = 'Pd2Hg2_beef',
outdir = './Pd2Hg2',
degauss = 0.001,
DeltaE = 0.001,
filpdos = 'Pd2Hg2.pdos.out',
filproj = 'Pd2Hg2.proj.out',
/
