&DOS
prefix = 'Pd2Hg2_beef',
outdir = './Pd2Hg2',
degauss = 0.001,
DeltaE = 0.001,
fildos = 'Pd2Hg2.dos.out',
/
