&INPUTPP
prefix = 'Pd2Ir2_beef',
outdir = './Pd2Ir2',
filplot = 'Pd2Ir2-wf.dat',
plot_num = 11
/
