&PROJWFC
prefix = 'Pd2Ir2_beef',
outdir = './Pd2Ir2',
degauss = 0.001,
DeltaE = 0.001,
filpdos = 'Pd2Ir2.pdos.out',
filproj = 'Pd2Ir2.proj.out',
/
