&DOS
prefix = 'Pd2Ir2_beef',
outdir = './Pd2Ir2',
degauss = 0.001,
DeltaE = 0.001,
fildos = 'Pd2Ir2.dos.out',
/
