&INPUTPP
prefix = 'Pd2Os2_beef',
outdir = './Pd2Os2',
filplot = 'Pd2Os2-wf.dat',
plot_num = 11
/
