&DOS
prefix = 'Pd2Os2_beef',
outdir = './Pd2Os2',
degauss = 0.001,
DeltaE = 0.001,
fildos = 'Pd2Os2.dos.out',
/
