&PROJWFC
prefix = 'Pd2Os2_beef',
outdir = './Pd2Os2',
degauss = 0.001,
DeltaE = 0.001,
filpdos = 'Pd2Os2.pdos.out',
filproj = 'Pd2Os2.proj.out',
/
