&INPUTPP
prefix = 'Pd2Pt2_beef',
outdir = './Pd2Pt2',
filplot = 'Pd2Pt2-wf.dat',
plot_num = 11
/
