&DOS
prefix = 'Pd2Pt2_beef',
outdir = './Pd2Pt2',
degauss = 0.001,
DeltaE = 0.001,
fildos = 'Pd2Pt2.dos.out',
/
