&PROJWFC
prefix = 'Pd2Pt2_beef',
outdir = './Pd2Pt2',
degauss = 0.001,
DeltaE = 0.001,
filpdos = 'Pd2Pt2.pdos.out',
filproj = 'Pd2Pt2.proj.out',
/
