&PROJWFC
prefix = 'Pd2Re2_beef',
outdir = './Pd2Re2',
degauss = 0.001,
DeltaE = 0.001,
filpdos = 'Pd2Re2.pdos.out',
filproj = 'Pd2Re2.proj.out',
/
