&INPUTPP
prefix = 'Pd2Re2_beef',
outdir = './Pd2Re2',
filplot = 'Pd2Re2-wf.dat',
plot_num = 11
/
