&DOS
prefix = 'Pd2Re2_beef',
outdir = './Pd2Re2',
degauss = 0.001,
DeltaE = 0.001,
fildos = 'Pd2Re2.dos.out',
/
