&INPUTPP
prefix = 'Pd2W2_beef',
outdir = './Pd2W2',
filplot = 'Pd2W2-wf.dat',
plot_num = 11
/
