&DOS
prefix = 'Pd2W2_beef',
outdir = './Pd2W2',
degauss = 0.001,
DeltaE = 0.001,
fildos = 'Pd2W2.dos.out',
/
