&PROJWFC
prefix = 'Pd2Y2_beef',
outdir = './Pd2Y2',
degauss = 0.001,
DeltaE = 0.001,
filpdos = 'Pd2Y2.pdos.out',
filproj = 'Pd2Y2.proj.out',
/
