&INPUTPP
prefix = 'Pd2Y2_beef',
outdir = './Pd2Y2',
filplot = 'Pd2Y2-wf.dat',
plot_num = 11
/
