&DOS
prefix = 'Pd2Y2_beef',
outdir = './Pd2Y2',
degauss = 0.001,
DeltaE = 0.001,
fildos = 'Pd2Y2.dos.out',
/
