&DOS
prefix = 'Rh2Pd2_beef',
outdir = './Rh2Pd2',
degauss = 0.001,
DeltaE = 0.001,
fildos = 'Rh2Pd2.dos.out',
/
