&PROJWFC
prefix = 'Rh2Pd2_beef',
outdir = './Rh2Pd2',
degauss = 0.001,
DeltaE = 0.001,
filpdos = 'Rh2Pd2.pdos.out',
filproj = 'Rh2Pd2.proj.out',
/
