&INPUTPP
prefix = 'Rh2Pd2_beef',
outdir = './Rh2Pd2',
filplot = 'Rh2Pd2-wf.dat',
plot_num = 11
/
