&DOS
prefix = 'Rh2W2_beef',
outdir = './Rh2W2',
degauss = 0.001,
DeltaE = 0.001,
fildos = 'Rh2W2.dos.out',
/
