&PROJWFC
prefix = 'Rh2W2_beef',
outdir = './Rh2W2',
degauss = 0.001,
DeltaE = 0.001,
filpdos = 'Rh2W2.pdos.out',
filproj = 'Rh2W2.proj.out',
/
