&INPUTPP
prefix = 'Rh2W2_beef',
outdir = './Rh2W2',
filplot = 'Rh2W2-wf.dat',
plot_num = 11
/
