&PROJWFC
prefix = 'Ru2Pd2_beef',
outdir = './Ru2Pd2',
degauss = 0.001,
DeltaE = 0.001,
filpdos = 'Ru2Pd2.pdos.out',
filproj = 'Ru2Pd2.proj.out',
/
