&DOS
prefix = 'Ru2Pd2_beef',
outdir = './Ru2Pd2',
degauss = 0.001,
DeltaE = 0.001,
fildos = 'Ru2Pd2.dos.out',
/
