&INPUTPP
prefix = 'Ru2Pd2_beef',
outdir = './Ru2Pd2',
filplot = 'Ru2Pd2-wf.dat',
plot_num = 11
/
