&PROJWFC
prefix = 'Ru2W2_beef',
outdir = './Ru2W2',
degauss = 0.001,
DeltaE = 0.001,
filpdos = 'Ru2W2.pdos.out',
filproj = 'Ru2W2.proj.out',
/
