&INPUTPP
prefix = 'Ru2W2_beef',
outdir = './Ru2W2',
filplot = 'Ru2W2-wf.dat',
plot_num = 11
/
