&DOS
prefix = 'Ru2W2_beef',
outdir = './Ru2W2',
degauss = 0.001,
DeltaE = 0.001,
fildos = 'Ru2W2.dos.out',
/
