&INPUTPP
prefix = 'Sc2Pd2_beef',
outdir = './Sc2Pd2',
filplot = 'Sc2Pd2-wf.dat',
plot_num = 11
/
