&DOS
prefix = 'Sc2Pd2_beef',
outdir = './Sc2Pd2',
degauss = 0.001,
DeltaE = 0.001,
fildos = 'Sc2Pd2.dos.out',
/
