&PROJWFC
prefix = 'Sc2Pd2_beef',
outdir = './Sc2Pd2',
degauss = 0.001,
DeltaE = 0.001,
filpdos = 'Sc2Pd2.pdos.out',
filproj = 'Sc2Pd2.proj.out',
/
