&DOS
prefix = 'Sc2V2_beef',
outdir = './Sc2V2',
degauss = 0.001,
DeltaE = 0.001,
fildos = 'Sc2V2.dos.out',
/
