&INPUTPP
prefix = 'Sc2V2_beef',
outdir = './Sc2V2',
filplot = 'Sc2V2-wf.dat',
plot_num = 11
/
