&PROJWFC
prefix = 'Sc2V2_beef',
outdir = './Sc2V2',
degauss = 0.001,
DeltaE = 0.001,
filpdos = 'Sc2V2.pdos.out',
filproj = 'Sc2V2.proj.out',
/
