&DOS
prefix = 'Sc2W2_beef',
outdir = './Sc2W2',
degauss = 0.001,
DeltaE = 0.001,
fildos = 'Sc2W2.dos.out',
/
