&PROJWFC
prefix = 'Sc2W2_beef',
outdir = './Sc2W2',
degauss = 0.001,
DeltaE = 0.001,
filpdos = 'Sc2W2.pdos.out',
filproj = 'Sc2W2.proj.out',
/
