&INPUTPP
prefix = 'Sc2W2_beef',
outdir = './Sc2W2',
filplot = 'Sc2W2-wf.dat',
plot_num = 11
/
