&INPUTPP
prefix = 'Tc2Pd2_beef',
outdir = './Tc2Pd2',
filplot = 'Tc2Pd2-wf.dat',
plot_num = 11
/
