&PROJWFC
prefix = 'Tc2Pd2_beef',
outdir = './Tc2Pd2',
degauss = 0.001,
DeltaE = 0.001,
filpdos = 'Tc2Pd2.pdos.out',
filproj = 'Tc2Pd2.proj.out',
/
