&DOS
prefix = 'Tc2Pd2_beef',
outdir = './Tc2Pd2',
degauss = 0.001,
DeltaE = 0.001,
fildos = 'Tc2Pd2.dos.out',
/
