&INPUTPP
prefix = 'Tc2W2_beef',
outdir = './Tc2W2',
filplot = 'Tc2W2-wf.dat',
plot_num = 11
/
