&DOS
prefix = 'Tc2W2_beef',
outdir = './Tc2W2',
degauss = 0.001,
DeltaE = 0.001,
fildos = 'Tc2W2.dos.out',
/
