&PROJWFC
prefix = 'Tc2W2_beef',
outdir = './Tc2W2',
degauss = 0.001,
DeltaE = 0.001,
filpdos = 'Tc2W2.pdos.out',
filproj = 'Tc2W2.proj.out',
/
