&INPUTPP
prefix = 'Ti2Pd2_beef',
outdir = './Ti2Pd2',
filplot = 'Ti2Pd2-wf.dat',
plot_num = 11
/
