&DOS
prefix = 'Ti2Pd2_beef',
outdir = './Ti2Pd2',
degauss = 0.001,
DeltaE = 0.001,
fildos = 'Ti2Pd2.dos.out',
/
