&PROJWFC
prefix = 'Ti2Pd2_beef',
outdir = './Ti2Pd2',
degauss = 0.001,
DeltaE = 0.001,
filpdos = 'Ti2Pd2.pdos.out',
filproj = 'Ti2Pd2.proj.out',
/
