&DOS
prefix = 'Ti2V2_beef',
outdir = './Ti2V2',
degauss = 0.001,
DeltaE = 0.001,
fildos = 'Ti2V2.dos.out',
/
