&INPUTPP
prefix = 'Ti2V2_beef',
outdir = './Ti2V2',
filplot = 'Ti2V2-wf.dat',
plot_num = 11
/
