&PROJWFC
prefix = 'Ti2V2_beef',
outdir = './Ti2V2',
degauss = 0.001,
DeltaE = 0.001,
filpdos = 'Ti2V2.pdos.out',
filproj = 'Ti2V2.proj.out',
/
