&INPUTPP
prefix = 'Ti2W2_beef',
outdir = './Ti2W2',
filplot = 'Ti2W2-wf.dat',
plot_num = 11
/
