&PROJWFC
prefix = 'Ti2W2_beef',
outdir = './Ti2W2',
degauss = 0.001,
DeltaE = 0.001,
filpdos = 'Ti2W2.pdos.out',
filproj = 'Ti2W2.proj.out',
/
