&DOS
prefix = 'Ti2W2_beef',
outdir = './Ti2W2',
degauss = 0.001,
DeltaE = 0.001,
fildos = 'Ti2W2.dos.out',
/
