&PROJWFC
prefix = 'V2Ag2_beef',
outdir = './V2Ag2',
degauss = 0.001,
DeltaE = 0.001,
filpdos = 'V2Ag2.pdos.out',
filproj = 'V2Ag2.proj.out',
/
