&INPUTPP
prefix = 'V2Ag2_beef',
outdir = './V2Ag2',
filplot = 'V2Ag2-wf.dat',
plot_num = 11
/
