&DOS
prefix = 'V2Ag2_beef',
outdir = './V2Ag2',
degauss = 0.001,
DeltaE = 0.001,
fildos = 'V2Ag2.dos.out',
/
