&INPUTPP
prefix = 'V2Au2_beef',
outdir = './V2Au2',
filplot = 'V2Au2-wf.dat',
plot_num = 11
/
