&DOS
prefix = 'V2Au2_beef',
outdir = './V2Au2',
degauss = 0.001,
DeltaE = 0.001,
fildos = 'V2Au2.dos.out',
/
