&PROJWFC
prefix = 'V2Au2_beef',
outdir = './V2Au2',
degauss = 0.001,
DeltaE = 0.001,
filpdos = 'V2Au2.pdos.out',
filproj = 'V2Au2.proj.out',
/
