&PROJWFC
prefix = 'V2Cd2_beef',
outdir = './V2Cd2',
degauss = 0.001,
DeltaE = 0.001,
filpdos = 'V2Cd2.pdos.out',
filproj = 'V2Cd2.proj.out',
/
