&INPUTPP
prefix = 'V2Cd2_beef',
outdir = './V2Cd2',
filplot = 'V2Cd2-wf.dat',
plot_num = 11
/
