&DOS
prefix = 'V2Cd2_beef',
outdir = './V2Cd2',
degauss = 0.001,
DeltaE = 0.001,
fildos = 'V2Cd2.dos.out',
/
