&INPUTPP
prefix = 'V2Cr2_beef',
outdir = './V2Cr2',
filplot = 'V2Cr2-wf.dat',
plot_num = 11
/
