&PROJWFC
prefix = 'V2Cr2_beef',
outdir = './V2Cr2',
degauss = 0.001,
DeltaE = 0.001,
filpdos = 'V2Cr2.pdos.out',
filproj = 'V2Cr2.proj.out',
/
