&DOS
prefix = 'V2Cr2_beef',
outdir = './V2Cr2',
degauss = 0.001,
DeltaE = 0.001,
fildos = 'V2Cr2.dos.out',
/
