&DOS
prefix = 'V2Cu2_beef',
outdir = './V2Cu2',
degauss = 0.001,
DeltaE = 0.001,
fildos = 'V2Cu2.dos.out',
/
