&INPUTPP
prefix = 'V2Cu2_beef',
outdir = './V2Cu2',
filplot = 'V2Cu2-wf.dat',
plot_num = 11
/
