&PROJWFC
prefix = 'V2Cu2_beef',
outdir = './V2Cu2',
degauss = 0.001,
DeltaE = 0.001,
filpdos = 'V2Cu2.pdos.out',
filproj = 'V2Cu2.proj.out',
/
