&DOS
prefix = 'V2Hg2_beef',
outdir = './V2Hg2',
degauss = 0.001,
DeltaE = 0.001,
fildos = 'V2Hg2.dos.out',
/
