&PROJWFC
prefix = 'V2Hg2_beef',
outdir = './V2Hg2',
degauss = 0.001,
DeltaE = 0.001,
filpdos = 'V2Hg2.pdos.out',
filproj = 'V2Hg2.proj.out',
/
