&INPUTPP
prefix = 'V2Hg2_beef',
outdir = './V2Hg2',
filplot = 'V2Hg2-wf.dat',
plot_num = 11
/
