&PROJWFC
prefix = 'V2Ir2_beef',
outdir = './V2Ir2',
degauss = 0.001,
DeltaE = 0.001,
filpdos = 'V2Ir2.pdos.out',
filproj = 'V2Ir2.proj.out',
/
