&INPUTPP
prefix = 'V2Ir2_beef',
outdir = './V2Ir2',
filplot = 'V2Ir2-wf.dat',
plot_num = 11
/
