&DOS
prefix = 'V2Ir2_beef',
outdir = './V2Ir2',
degauss = 0.001,
DeltaE = 0.001,
fildos = 'V2Ir2.dos.out',
/
