&PROJWFC
prefix = 'V2Mo2_beef',
outdir = './V2Mo2',
degauss = 0.001,
DeltaE = 0.001,
filpdos = 'V2Mo2.pdos.out',
filproj = 'V2Mo2.proj.out',
/
