&DOS
prefix = 'V2Mo2_beef',
outdir = './V2Mo2',
degauss = 0.001,
DeltaE = 0.001,
fildos = 'V2Mo2.dos.out',
/
