&INPUTPP
prefix = 'V2Mo2_beef',
outdir = './V2Mo2',
filplot = 'V2Mo2-wf.dat',
plot_num = 11
/
