&INPUTPP
prefix = 'V2Nb2_beef',
outdir = './V2Nb2',
filplot = 'V2Nb2-wf.dat',
plot_num = 11
/
