&PROJWFC
prefix = 'V2Nb2_beef',
outdir = './V2Nb2',
degauss = 0.001,
DeltaE = 0.001,
filpdos = 'V2Nb2.pdos.out',
filproj = 'V2Nb2.proj.out',
/
