&DOS
prefix = 'V2Nb2_beef',
outdir = './V2Nb2',
degauss = 0.001,
DeltaE = 0.001,
fildos = 'V2Nb2.dos.out',
/
