&DOS
prefix = 'V2Os2_beef',
outdir = './V2Os2',
degauss = 0.001,
DeltaE = 0.001,
fildos = 'V2Os2.dos.out',
/
