&INPUTPP
prefix = 'V2Os2_beef',
outdir = './V2Os2',
filplot = 'V2Os2-wf.dat',
plot_num = 11
/
