&PROJWFC
prefix = 'V2Os2_beef',
outdir = './V2Os2',
degauss = 0.001,
DeltaE = 0.001,
filpdos = 'V2Os2.pdos.out',
filproj = 'V2Os2.proj.out',
/
