&PROJWFC
prefix = 'V2Pd2_beef',
outdir = './V2Pd2',
degauss = 0.001,
DeltaE = 0.001,
filpdos = 'V2Pd2.pdos.out',
filproj = 'V2Pd2.proj.out',
/
