&DOS
prefix = 'V2Pd2_beef',
outdir = './V2Pd2',
degauss = 0.001,
DeltaE = 0.001,
fildos = 'V2Pd2.dos.out',
/
