&INPUTPP
prefix = 'V2Pd2_beef',
outdir = './V2Pd2',
filplot = 'V2Pd2-wf.dat',
plot_num = 11
/
