&PROJWFC
prefix = 'V2Pt2_beef',
outdir = './V2Pt2',
degauss = 0.001,
DeltaE = 0.001,
filpdos = 'V2Pt2.pdos.out',
filproj = 'V2Pt2.proj.out',
/
