&INPUTPP
prefix = 'V2Pt2_beef',
outdir = './V2Pt2',
filplot = 'V2Pt2-wf.dat',
plot_num = 11
/
