&DOS
prefix = 'V2Pt2_beef',
outdir = './V2Pt2',
degauss = 0.001,
DeltaE = 0.001,
fildos = 'V2Pt2.dos.out',
/
