&DOS
prefix = 'V2Re2_beef',
outdir = './V2Re2',
degauss = 0.001,
DeltaE = 0.001,
fildos = 'V2Re2.dos.out',
/
