&PROJWFC
prefix = 'V2Re2_beef',
outdir = './V2Re2',
degauss = 0.001,
DeltaE = 0.001,
filpdos = 'V2Re2.pdos.out',
filproj = 'V2Re2.proj.out',
/
