&INPUTPP
prefix = 'V2Re2_beef',
outdir = './V2Re2',
filplot = 'V2Re2-wf.dat',
plot_num = 11
/
