&PROJWFC
prefix = 'V2Rh2_beef',
outdir = './V2Rh2',
degauss = 0.001,
DeltaE = 0.001,
filpdos = 'V2Rh2.pdos.out',
filproj = 'V2Rh2.proj.out',
/
