&INPUTPP
prefix = 'V2Rh2_beef',
outdir = './V2Rh2',
filplot = 'V2Rh2-wf.dat',
plot_num = 11
/
