&INPUTPP
prefix = 'V2Ru2_beef',
outdir = './V2Ru2',
filplot = 'V2Ru2-wf.dat',
plot_num = 11
/
