&PROJWFC
prefix = 'V2Ru2_beef',
outdir = './V2Ru2',
degauss = 0.001,
DeltaE = 0.001,
filpdos = 'V2Ru2.pdos.out',
filproj = 'V2Ru2.proj.out',
/
