&DOS
prefix = 'V2Ru2_beef',
outdir = './V2Ru2',
degauss = 0.001,
DeltaE = 0.001,
fildos = 'V2Ru2.dos.out',
/
