&INPUTPP
prefix = 'V2Tc2_beef',
outdir = './V2Tc2',
filplot = 'V2Tc2-wf.dat',
plot_num = 11
/
