&PROJWFC
prefix = 'V2Tc2_beef',
outdir = './V2Tc2',
degauss = 0.001,
DeltaE = 0.001,
filpdos = 'V2Tc2.pdos.out',
filproj = 'V2Tc2.proj.out',
/
