&DOS
prefix = 'V2Tc2_beef',
outdir = './V2Tc2',
degauss = 0.001,
DeltaE = 0.001,
fildos = 'V2Tc2.dos.out',
/
