&PROJWFC
prefix = 'V2W2_beef',
outdir = './V2W2',
degauss = 0.001,
DeltaE = 0.001,
filpdos = 'V2W2.pdos.out',
filproj = 'V2W2.proj.out',
/
