&INPUTPP
prefix = 'V2W2_beef',
outdir = './V2W2',
filplot = 'V2W2-wf.dat',
plot_num = 11
/
