&DOS
prefix = 'V2W2_beef',
outdir = './V2W2',
degauss = 0.001,
DeltaE = 0.001,
fildos = 'V2W2.dos.out',
/
