&INPUTPP
prefix = 'V2Y2_beef',
outdir = './V2Y2',
filplot = 'V2Y2-wf.dat',
plot_num = 11
/
