&PROJWFC
prefix = 'V2Y2_beef',
outdir = './V2Y2',
degauss = 0.001,
DeltaE = 0.001,
filpdos = 'V2Y2.pdos.out',
filproj = 'V2Y2.proj.out',
/
