&DOS
prefix = 'V2Y2_beef',
outdir = './V2Y2',
degauss = 0.001,
DeltaE = 0.001,
fildos = 'V2Y2.dos.out',
/
