&INPUTPP
prefix = 'V2Zr2_beef',
outdir = './V2Zr2',
filplot = 'V2Zr2-wf.dat',
plot_num = 11
/
