&PROJWFC
prefix = 'V2Zr2_beef',
outdir = './V2Zr2',
degauss = 0.001,
DeltaE = 0.001,
filpdos = 'V2Zr2.pdos.out',
filproj = 'V2Zr2.proj.out',
/
