&DOS
prefix = 'V2Zr2_beef',
outdir = './V2Zr2',
degauss = 0.001,
DeltaE = 0.001,
fildos = 'V2Zr2.dos.out',
/
