&INPUTPP
prefix = 'W2Au2_beef',
outdir = './W2Au2',
filplot = 'W2Au2-wf.dat',
plot_num = 11
/
