&PROJWFC
prefix = 'W2Au2_beef',
outdir = './W2Au2',
degauss = 0.001,
DeltaE = 0.001,
filpdos = 'W2Au2.pdos.out',
filproj = 'W2Au2.proj.out',
/
