&DOS
prefix = 'W2Au2_beef',
outdir = './W2Au2',
degauss = 0.001,
DeltaE = 0.001,
fildos = 'W2Au2.dos.out',
/
