&DOS
prefix = 'W2Hg2_beef',
outdir = './W2Hg2',
degauss = 0.001,
DeltaE = 0.001,
fildos = 'W2Hg2.dos.out',
/
