&INPUTPP
prefix = 'W2Hg2_beef',
outdir = './W2Hg2',
filplot = 'W2Hg2-wf.dat',
plot_num = 11
/
