&PROJWFC
prefix = 'W2Hg2_beef',
outdir = './W2Hg2',
degauss = 0.001,
DeltaE = 0.001,
filpdos = 'W2Hg2.pdos.out',
filproj = 'W2Hg2.proj.out',
/
