&INPUTPP
prefix = 'W2Ir2_beef',
outdir = './W2Ir2',
filplot = 'W2Ir2-wf.dat',
plot_num = 11
/
