&PROJWFC
prefix = 'W2Ir2_beef',
outdir = './W2Ir2',
degauss = 0.001,
DeltaE = 0.001,
filpdos = 'W2Ir2.pdos.out',
filproj = 'W2Ir2.proj.out',
/
