&DOS
prefix = 'W2Ir2_beef',
outdir = './W2Ir2',
degauss = 0.001,
DeltaE = 0.001,
fildos = 'W2Ir2.dos.out',
/
