&DOS
prefix = 'W2Os2_beef',
outdir = './W2Os2',
degauss = 0.001,
DeltaE = 0.001,
fildos = 'W2Os2.dos.out',
/
