&PROJWFC
prefix = 'W2Os2_beef',
outdir = './W2Os2',
degauss = 0.001,
DeltaE = 0.001,
filpdos = 'W2Os2.pdos.out',
filproj = 'W2Os2.proj.out',
/
