&INPUTPP
prefix = 'W2Os2_beef',
outdir = './W2Os2',
filplot = 'W2Os2-wf.dat',
plot_num = 11
/
