&PROJWFC
prefix = 'W2Pt2_beef',
outdir = './W2Pt2',
degauss = 0.001,
DeltaE = 0.001,
filpdos = 'W2Pt2.pdos.out',
filproj = 'W2Pt2.proj.out',
/
