&DOS
prefix = 'W2Pt2_beef',
outdir = './W2Pt2',
degauss = 0.001,
DeltaE = 0.001,
fildos = 'W2Pt2.dos.out',
/
