&INPUTPP
prefix = 'W2Pt2_beef',
outdir = './W2Pt2',
filplot = 'W2Pt2-wf.dat',
plot_num = 11
/
