&DOS
prefix = 'W2Re2_beef',
outdir = './W2Re2',
degauss = 0.001,
DeltaE = 0.001,
fildos = 'W2Re2.dos.out',
/
