&PROJWFC
prefix = 'W2Re2_beef',
outdir = './W2Re2',
degauss = 0.001,
DeltaE = 0.001,
filpdos = 'W2Re2.pdos.out',
filproj = 'W2Re2.proj.out',
/
