&INPUTPP
prefix = 'W2Re2_beef',
outdir = './W2Re2',
filplot = 'W2Re2-wf.dat',
plot_num = 11
/
