&PROJWFC
prefix = 'Y2W2_beef',
outdir = './Y2W2',
degauss = 0.001,
DeltaE = 0.001,
filpdos = 'Y2W2.pdos.out',
filproj = 'Y2W2.proj.out',
/
