&DOS
prefix = 'Y2W2_beef',
outdir = './Y2W2',
degauss = 0.001,
DeltaE = 0.001,
fildos = 'Y2W2.dos.out',
/
