&INPUTPP
prefix = 'Y2W2_beef',
outdir = './Y2W2',
filplot = 'Y2W2-wf.dat',
plot_num = 11
/
