&PROJWFC
prefix = 'Zr2Pd2_beef',
outdir = './Zr2Pd2',
degauss = 0.001,
DeltaE = 0.001,
filpdos = 'Zr2Pd2.pdos.out',
filproj = 'Zr2Pd2.proj.out',
/
