&INPUTPP
prefix = 'Zr2Pd2_beef',
outdir = './Zr2Pd2',
filplot = 'Zr2Pd2-wf.dat',
plot_num = 11
/
