&DOS
prefix = 'Zr2Pd2_beef',
outdir = './Zr2Pd2',
degauss = 0.001,
DeltaE = 0.001,
fildos = 'Zr2Pd2.dos.out',
/
