&PROJWFC
prefix = 'Zr2W2_beef',
outdir = './Zr2W2',
degauss = 0.001,
DeltaE = 0.001,
filpdos = 'Zr2W2.pdos.out',
filproj = 'Zr2W2.proj.out',
/
