&INPUTPP
prefix = 'Zr2W2_beef',
outdir = './Zr2W2',
filplot = 'Zr2W2-wf.dat',
plot_num = 11
/
