&DOS
prefix = 'Zr2W2_beef',
outdir = './Zr2W2',
degauss = 0.001,
DeltaE = 0.001,
fildos = 'Zr2W2.dos.out',
/
