&CONTROL
   calculation      = 'scf'
   tstress          = .true.
   tprnfor          = .true.
   outdir           = './Cr2Mo2'
   prefix           = 'Cr2Mo2_beef'
   pseudo_dir       = '../pseudo'
   tefield          = .true.
   dipfield         = .true.
/
&SYSTEM
   celldm(1)        = 1.889726
   ecutwfc          = 55.123963237125
   ecutrho          = 551.23963237125
   nosym            = .true.
   occupations      = 'smearing'
   degauss          = 0.01D0
   smearing         = 'fd'
   input_dft        = 'BEEF-vdW'
   edir             = 3
   emaxpos          = 0.95
   eopreg           = 0.05
   eamp             = 0.01
   ntyp             = 2
   nat              = 12
   ibrav            = 0
/
&ELECTRONS
   electron_maxstep = 500
   conv_thr         = 1e-05
   mixing_mode      = 'plain'
   mixing_beta      = 0.1
   mixing_ndim      = 10
/
&IONS
/
&CELL
/

ATOMIC_SPECIES
Cr 51.9961 Cr.pbe-spn-rrkjus_psl.1.0.0.UPF
Mo 95.95 Mo.pbe-spn-rrkjus_psl.1.0.0.UPF

K_POINTS automatic
12 12 1  0 0 0

CELL_PARAMETERS alat
5.09295600000000 0.00000000000000 0.00000000000000
-2.54647800000000 5.07319600000000 0.00000000000000
0.00000000000000 0.00000000000000 24.40488800000000

ATOMIC_POSITIONS alat
Cr 0.0000000000 0.0000000000 10.0000000000 
Cr 2.5464778000 0.0000000000 10.0000000000 
Mo 1.2732389000 2.5365980000 10.0000000000 
Mo -1.2732389000 2.5365980000 10.0000000000 
Cr 2.5464778000 1.2781980000 12.2024438000 
Cr -0.0000000000 1.2781980000 12.2024438000 
Mo -1.2732389000 3.8147960000 12.2024438000 
Mo 1.2732389000 3.8147960000 12.2024438000 
Cr 0.0004959000 2.4263227000 14.2132523000 
Cr 2.5469737000 2.4263155000 14.2132151000 
Mo 1.2735585000 5.0691457000 14.4394402000 
Mo -1.2729322000 5.0691449000 14.4394406000 

