&CONTROL
   calculation      = 'scf'
   tstress          = .true.
   tprnfor          = .true.
   outdir           = './Cr2Zr2'
   prefix           = 'Cr2Zr2_beef'
   pseudo_dir       = '../pseudo'
   tefield          = .true.
   dipfield         = .true.
/
&SYSTEM
   celldm(1)        = 1.889726
   ecutwfc          = 55.123963237125
   ecutrho          = 551.23963237125
   nosym            = .true.
   occupations      = 'smearing'
   degauss          = 0.01D0
   smearing         = 'fd'
   input_dft        = 'BEEF-vdW'
   edir             = 3
   emaxpos          = 0.95
   eopreg           = 0.05
   eamp             = 0.01
   ntyp             = 2
   nat              = 12
   ibrav            = 0
/
&ELECTRONS
   electron_maxstep = 500
   conv_thr         = 1e-05
   mixing_mode      = 'plain'
   mixing_beta      = 0.1
   mixing_ndim      = 10
/
&IONS
/
&CELL
/

ATOMIC_SPECIES
Cr 51.9961 Cr.pbe-spn-rrkjus_psl.1.0.0.UPF
Zr 91.224 Zr.pbe-spn-rrkjus_psl.1.0.0.UPF

K_POINTS automatic
12 12 1  0 0 0

CELL_PARAMETERS alat
5.61265500000000 0.00000000000000 0.00000000000000
1.87198400000000 5.29127300000000 0.00000000000000
0.00000000000000 0.00000000000000 24.58304900000000

ATOMIC_POSITIONS alat
Cr 0.0000000000 0.0000000000 10.0000000000 
Cr 3.7423193000 2.6456364000 10.0000000000 
Zr 2.8063273000 0.0000000000 10.0000000000 
Zr 0.9359920000 2.6456364000 10.0000000000 
Cr 5.6126545000 3.9678718000 12.2915247000 
Cr 1.8703353000 1.3222354000 12.2915247000 
Zr 2.8063273000 3.9678718000 12.2915247000 
Zr 4.6766626000 1.3222354000 12.2915247000 
Cr 3.7407801000 2.6445484000 14.4089689000 
Cr 7.4831699000 5.2902343000 14.4090352000 
Zr 6.5476785000 2.6447039000 14.5792228000 
Zr 4.6771093000 5.2906708000 14.5792281000 

