&CONTROL
   calculation      = 'scf'
   tstress          = .true.
   tprnfor          = .true.
   outdir           = './Cr2Zn2'
   prefix           = 'Cr2Zn2_beef'
   pseudo_dir       = '../pseudo'
   tefield          = .true.
   dipfield         = .true.
/
&SYSTEM
   celldm(1)        = 1.889726
   ecutwfc          = 55.123963237125
   ecutrho          = 551.23963237125
   nosym            = .true.
   occupations      = 'smearing'
   degauss          = 0.01D0
   smearing         = 'fd'
   input_dft        = 'BEEF-vdW'
   edir             = 3
   emaxpos          = 0.95
   eopreg           = 0.05
   eamp             = 0.01
   ntyp             = 2
   nat              = 12
   ibrav            = 0
/
&ELECTRONS
   electron_maxstep = 500
   conv_thr         = 1e-05
   mixing_mode      = 'plain'
   mixing_beta      = 0.1
   mixing_ndim      = 10
/
&IONS
/
&CELL
/

ATOMIC_SPECIES
Cr 51.9961 Cr.pbe-spn-rrkjus_psl.1.0.0.UPF
Zn 65.38 Zn.pbe-spn-rrkjus_psl.1.0.0.UPF

K_POINTS automatic
12 12 1  0 0 0

CELL_PARAMETERS alat
4.98074700000000 0.00000000000000 0.00000000000000
-2.49037300000000 4.81159500000000 0.00000000000000
0.00000000000000 0.00000000000000 24.26170800000000

ATOMIC_POSITIONS alat
Cr 0.0000000000 0.0000000000 10.0000000000 
Cr 2.4903735000 0.0000000000 10.0000000000 
Zn 1.2451867000 2.4057977000 10.0000000000 
Zn -1.2451867000 2.4057977000 10.0000000000 
Cr 2.4903735000 1.2889612000 12.1308540000 
Cr 0.0000000000 1.2889612000 12.1308540000 
Zn -1.2451867000 3.6947590000 12.1308540000 
Zn 1.2451867000 3.6947590000 12.1308540000 
Cr 0.0000857000 2.3723586000 14.0852191000 
Cr 2.4904579000 2.3723114000 14.0852597000 
Zn 3.7356052000 0.0292288000 14.4986108000 
Zn 1.2453447000 0.0292313000 14.4986105000 

