&CONTROL
   calculation      = 'scf'
   tstress          = .true.
   tprnfor          = .true.
   outdir           = './Sc2Cr2'
   prefix           = 'Sc2Cr2_beef'
   pseudo_dir       = '../pseudo'
   tefield          = .true.
   dipfield         = .true.
/
&SYSTEM
   celldm(1)        = 1.889726
   ecutwfc          = 55.123963237125
   ecutrho          = 551.23963237125
   nosym            = .true.
   occupations      = 'smearing'
   degauss          = 0.01D0
   smearing         = 'fd'
   input_dft        = 'BEEF-vdW'
   edir             = 3
   emaxpos          = 0.95
   eopreg           = 0.05
   eamp             = 0.01
   ntyp             = 2
   nat              = 12
   ibrav            = 0
/
&ELECTRONS
   electron_maxstep = 500
   conv_thr         = 1e-05
   mixing_mode      = 'plain'
   mixing_beta      = 0.1
   mixing_ndim      = 10
/
&IONS
/
&CELL
/

ATOMIC_SPECIES
Sc 44.955908 Sc.pbe-spn-rrkjus_psl.1.0.0.UPF
Cr 51.9961 Cr.pbe-spn-rrkjus_psl.1.0.0.UPF

K_POINTS automatic
12 12 1  0 0 0

CELL_PARAMETERS alat
5.44413400000000 0.00000000000000 0.00000000000000
-2.72206700000000 5.21050200000000 0.00000000000000
0.00000000000000 0.00000000000000 24.64215200000000

ATOMIC_POSITIONS alat
Sc 0.0000000000 0.0000000000 10.0000000000 
Sc 2.7220670000 0.0000000000 10.0000000000 
Cr 1.3610335000 2.6052512000 10.0000000000 
Cr -1.3610335000 2.6052512000 10.0000000000 
Sc 2.7220670000 1.4220603000 12.3210758000 
Sc 0.0000000000 1.4220603000 12.3210758000 
Cr -1.3610335000 4.0273115000 12.3210758000 
Cr 1.3610335000 4.0273115000 12.3210758000 
Sc -0.0003648000 2.8137876000 14.8222643000 
Sc 2.7218064000 2.8138110000 14.8222995000 
Cr 1.3610397000 5.1249293000 14.2053546000 
Cr -1.3611281000 5.1251032000 14.2055415000 

