&CONTROL
   calculation      = 'scf'
   tstress          = .true.
   tprnfor          = .true.
   outdir           = './Sc2Zn2'
   prefix           = 'Sc2Zn2_beef'
   pseudo_dir       = '../pseudo'
   tefield          = .true.
   dipfield         = .true.
/
&SYSTEM
   celldm(1)        = 1.889726
   ecutwfc          = 55.123963237125
   ecutrho          = 551.23963237125
   nosym            = .true.
   occupations      = 'smearing'
   degauss          = 0.01D0
   smearing         = 'fd'
   input_dft        = 'BEEF-vdW'
   edir             = 3
   emaxpos          = 0.95
   eopreg           = 0.05
   eamp             = 0.01
   ntyp             = 2
   nat              = 12
   ibrav            = 0
/
&ELECTRONS
   electron_maxstep = 500
   conv_thr         = 1e-05
   mixing_mode      = 'plain'
   mixing_beta      = 0.1
   mixing_ndim      = 10
/
&IONS
/
&CELL
/

ATOMIC_SPECIES
Sc 44.955908 Sc.pbe-spn-rrkjus_psl.1.0.0.UPF
Zn 65.38 Zn.pbe-spn-rrkjus_psl.1.0.0.UPF

K_POINTS automatic
12 12 1  0 0 0

CELL_PARAMETERS alat
5.81149100000000 0.00000000000000 0.00000000000000
1.93449900000000 5.48006800000000 0.00000000000000
0.00000000000000 0.00000000000000 24.74424400000000

ATOMIC_POSITIONS alat
Sc 0.0000000000 0.0000000000 10.0000000000 
Sc 3.8729949000 2.7400339000 10.0000000000 
Zn 2.9057455000 0.0000000000 10.0000000000 
Zn 0.9672494000 2.7400339000 10.0000000000 
Sc 5.8114910000 4.1114648000 12.3721220000 
Sc 1.9384961000 1.3714310000 12.3721220000 
Zn 2.9057455000 4.1114648000 12.3721220000 
Zn 4.8442417000 1.3714310000 12.3721220000 
Sc 3.8761792000 2.7422806000 14.7156059000 
Sc 0.0031762000 0.0022405000 14.7155928000 
Zn 0.9710925000 2.7427637000 14.7169976000 
Zn 2.9095600000 0.0027076000 14.7169700000 

