&CONTROL
   calculation      = 'scf'
   tstress          = .true.
   tprnfor          = .true.
   outdir           = './Sc2Zr2'
   prefix           = 'Sc2Zr2_beef'
   pseudo_dir       = '../pseudo'
   tefield          = .true.
   dipfield         = .true.
/
&SYSTEM
   celldm(1)        = 1.889726
   ecutwfc          = 55.123963237125
   ecutrho          = 551.23963237125
   nosym            = .true.
   occupations      = 'smearing'
   degauss          = 0.01D0
   smearing         = 'fd'
   input_dft        = 'BEEF-vdW'
   edir             = 3
   emaxpos          = 0.95
   eopreg           = 0.05
   eamp             = 0.01
   ntyp             = 2
   nat              = 12
   ibrav            = 0
/
&ELECTRONS
   electron_maxstep = 500
   conv_thr         = 1e-05
   mixing_mode      = 'plain'
   mixing_beta      = 0.1
   mixing_ndim      = 10
/
&IONS
/
&CELL
/

ATOMIC_SPECIES
Sc 44.955908 Sc.pbe-spn-rrkjus_psl.1.0.0.UPF
Zr 91.224 Zr.pbe-spn-rrkjus_psl.1.0.0.UPF

K_POINTS automatic
12 12 1  0 0 0

CELL_PARAMETERS alat
6.38856200000000 0.00000000000000 0.00000000000000
-3.19428100000000 5.58874200000000 0.00000000000000
0.00000000000000 0.00000000000000 25.24221600000000

ATOMIC_POSITIONS alat
Sc 0.0000000000 0.0000000000 10.0000000000 
Sc 3.1942809000 0.0000000000 10.0000000000 
Zr 1.5971404000 2.7943711000 10.0000000000 
Zr -1.5971404000 2.7943711000 10.0000000000 
Sc 3.1942809000 1.8257114000 12.6211082000 
Sc 0.0000000000 1.8257114000 12.6211082000 
Zr -1.5971404000 4.6200825000 12.6211082000 
Zr 1.5971404000 4.6200825000 12.6211082000 
Sc -0.0000034000 3.6548078000 15.2161083000 
Sc 3.1942916000 3.6547443000 15.2160466000 
Zr 4.7914522000 0.8399397000 15.0761942000 
Zr 1.5971099000 0.8399556000 15.0761990000 

