&CONTROL
   calculation      = 'scf'
   tstress          = .true.
   tprnfor          = .true.
   outdir           = './Zn2Au2'
   prefix           = 'Zn2Au2_beef'
   pseudo_dir       = '../pseudo'
   tefield          = .true.
   dipfield         = .true.
/
&SYSTEM
   celldm(1)        = 1.889726
   ecutwfc          = 55.123963237125
   ecutrho          = 551.23963237125
   nosym            = .true.
   occupations      = 'smearing'
   degauss          = 0.01D0
   smearing         = 'fd'
   input_dft        = 'BEEF-vdW'
   edir             = 3
   emaxpos          = 0.95
   eopreg           = 0.05
   eamp             = 0.01
   ntyp             = 2
   nat              = 12
   ibrav            = 0
/
&ELECTRONS
   electron_maxstep = 500
   conv_thr         = 1e-05
   mixing_mode      = 'plain'
   mixing_beta      = 0.1
   mixing_ndim      = 10
/
&IONS
/
&CELL
/

ATOMIC_SPECIES
Zn 65.38 Zn.pbe-spn-rrkjus_psl.1.0.0.UPF
Au 196.966569 Au.pbe-n-rrkjus_psl.1.0.0.UPF

K_POINTS automatic
12 12 1  0 0 0

CELL_PARAMETERS alat
5.56852300000000 0.00000000000000 0.00000000000000
1.97298800000000 5.20728000000000 0.00000000000000
0.00000000000000 0.00000000000000 24.57735700000000

ATOMIC_POSITIONS alat
Zn 0.0000000000 0.0000000000 10.0000000000 
Zn 3.7707555000 2.6036399000 10.0000000000 
Au 2.7842614000 0.0000000000 10.0000000000 
Au 0.9864941000 2.6036399000 10.0000000000 
Zn 5.5685227000 3.8449664000 12.2886785000 
Zn 1.7977673000 1.2413265000 12.2886785000 
Au 2.7842614000 3.8449664000 12.2886785000 
Au 4.5820287000 1.2413265000 12.2886785000 
Zn 3.5986690000 2.4848464000 14.7243931000 
Zn 7.3694293000 5.0884075000 14.7243863000 
Au 6.3927426000 2.4915722000 14.6559156000 
Au 4.5949882000 5.0952278000 14.6559271000 

