&CONTROL
   calculation      = 'scf'
   tstress          = .true.
   tprnfor          = .true.
   outdir           = './V750'
   prefix           = 'V750_beef'
   pseudo_dir       = '../pseudo'
   tefield          = .true.
   dipfield         = .true.
/
&SYSTEM
   celldm(1)        = 1.889726
   ecutwfc          = 55.123963237125
   ecutrho          = 551.23963237125
   nosym            = .true.
   occupations      = 'smearing'
   degauss          = 0.01D0
   smearing         = 'fd'
   input_dft        = 'BEEF-vdW'
   edir             = 3
   emaxpos          = 0.99
   eopreg           = 0.025
   eamp             = 0.0D0
   ntyp             = 1
   nat              = 12
   ibrav            = 0
/
&ELECTRONS
   electron_maxstep = 500
   conv_thr         = 1e-05
   mixing_mode      = 'plain'
   mixing_beta      = 0.1
   mixing_ndim      = 10
/
&IONS
/
&CELL
/

ATOMIC_SPECIES
V 50.9415 V.pbe-spnl-rrkjus_psl.1.0.0.UPF

K_POINTS automatic
12 12 1  0 0 0

CELL_PARAMETERS alat
5.39917800000000 0.00000000000000 0.00000000000000
2.69958900000000 4.67582500000000 0.00000000000000
0.00000000000000 0.00000000000000 24.40841100000000

ATOMIC_POSITIONS alat
V 1.3497947700 0.7793043225 9.9999990630 
V 4.0493837700 0.7793043225 9.9999990630 
V 2.6995892700 3.1172168225 9.9999990630 
V 5.3991782700 3.1172168225 9.9999990630 
V 5.3991777300 1.5586081775 12.2042055000 
V 2.6995887300 1.5586081775 12.2042055000 
V 6.7489722300 3.8965206775 12.2042055000 
V 4.0493832300 3.8965206775 12.2042055000 
V 0.0000000000 0.0000000000 14.4084119370 
V 2.6995890000 0.0000000000 14.4084119370 
V 1.3497945000 2.3379125000 14.4084119370 
V 4.0493835000 2.3379125000 14.4084119370 

