&CONTROL
   calculation      = 'scf'
   tstress          = .true.
   tprnfor          = .true.
   outdir           = './Mo2Re2'
   prefix           = 'Mo2Re2_beef'
   pseudo_dir       = '../pseudo'
   tefield          = .true.
   dipfield         = .true.
/
&SYSTEM
   celldm(1)        = 1.889726
   ecutwfc          = 55.123963237125
   ecutrho          = 551.23963237125
   nosym            = .true.
   occupations      = 'smearing'
   degauss          = 0.01D0
   smearing         = 'fd'
   input_dft        = 'BEEF-vdW'
   edir             = 3
   emaxpos          = 0.95
   eopreg           = 0.05
   eamp             = 0.01
   ntyp             = 2
   nat              = 12
   ibrav            = 0
/
&ELECTRONS
   electron_maxstep = 500
   conv_thr         = 1e-05
   mixing_mode      = 'plain'
   mixing_beta      = 0.1
   mixing_ndim      = 10
/
&IONS
/
&CELL
/

ATOMIC_SPECIES
Mo 95.95 Mo.pbe-spn-rrkjus_psl.1.0.0.UPF
Re 186.207 Re.pbe-spn-rrkjus_psl.1.0.0.UPF

K_POINTS automatic
12 12 1  0 0 0

CELL_PARAMETERS alat
5.59392500000000 0.00000000000000 0.00000000000000
2.79417300000000 4.84609000000000 0.00000000000000
0.00000000000000 0.00000000000000 24.56817800000000

ATOMIC_POSITIONS alat
Mo 0.0000000000 0.0000000000 10.0000000000 
Mo 4.1940489000 2.4230452000 10.0000000000 
Re 2.7969624000 0.0000000000 10.0000000000 
Re 1.3970865000 2.4230452000 10.0000000000 
Mo 5.5939248000 3.2318014000 12.2840888000 
Mo 1.3998760000 0.8087561000 12.2840888000 
Re 2.7969624000 3.2318014000 12.2840888000 
Re 4.1968384000 0.8087561000 12.2840888000 
Mo 2.8077596000 1.6221388000 14.4968066000 
Mo 7.0018183000 4.0451886000 14.4968061000 
Re 5.5815026000 1.6087293000 14.4632952000 
Re 4.1816304000 4.0317652000 14.4632895000 

