&CONTROL
   calculation      = 'scf'
   tstress          = .true.
   tprnfor          = .true.
   outdir           = './Re2Os2'
   prefix           = 'Re2Os2_beef'
   pseudo_dir       = '../pseudo'
   tefield          = .true.
   dipfield         = .true.
/
&SYSTEM
   celldm(1)        = 1.889726
   ecutwfc          = 55.123963237125
   ecutrho          = 551.23963237125
   nosym            = .true.
   occupations      = 'smearing'
   degauss          = 0.01D0
   smearing         = 'fd'
   input_dft        = 'BEEF-vdW'
   edir             = 3
   emaxpos          = 0.95
   eopreg           = 0.05
   eamp             = 0.01
   ntyp             = 2
   nat              = 12
   ibrav            = 0
/
&ELECTRONS
   electron_maxstep = 500
   conv_thr         = 1e-05
   mixing_mode      = 'plain'
   mixing_beta      = 0.1
   mixing_ndim      = 10
/
&IONS
/
&CELL
/

ATOMIC_SPECIES
Re 186.207 Re.pbe-spn-rrkjus_psl.1.0.0.UPF
Os 190.23 Os.pbe-spn-rrkjus_psl.1.0.0.UPF

K_POINTS automatic
12 12 1  0 0 0

CELL_PARAMETERS alat
5.49083400000000 0.00000000000000 0.00000000000000
2.74183300000000 4.75726900000000 0.00000000000000
0.00000000000000 0.00000000000000 24.48421900000000

ATOMIC_POSITIONS alat
Re 0.0000000000 0.0000000000 10.0000000000 
Re 4.1163335000 2.3786345000 10.0000000000 
Os 2.7454170000 0.0000000000 10.0000000000 
Os 1.3709165000 2.3786345000 10.0000000000 
Re 5.4908339000 3.1728933000 12.2421095000 
Re 1.3745004000 0.7942588000 12.2421095000 
Os 2.7454170000 3.1728933000 12.2421095000 
Os 4.1199174000 0.7942588000 12.2421095000 
Re 2.7470012000 1.5873640000 14.3806736000 
Re 6.8633339000 3.9659922000 14.3806780000 
Os 5.5018807000 1.5928351000 14.3950178000 
Os 4.1273775000 3.9714621000 14.3950192000 

