&CONTROL
   calculation      = 'scf'
   tstress          = .true.
   tprnfor          = .true.
   outdir           = './Re2Pt2'
   prefix           = 'Re2Pt2_beef'
   pseudo_dir       = '../pseudo'
   tefield          = .true.
   dipfield         = .true.
/
&SYSTEM
   celldm(1)        = 1.889726
   ecutwfc          = 55.123963237125
   ecutrho          = 551.23963237125
   nosym            = .true.
   occupations      = 'smearing'
   degauss          = 0.01D0
   smearing         = 'fd'
   input_dft        = 'BEEF-vdW'
   edir             = 3
   emaxpos          = 0.95
   eopreg           = 0.05
   eamp             = 0.01
   ntyp             = 2
   nat              = 12
   ibrav            = 0
/
&ELECTRONS
   electron_maxstep = 500
   conv_thr         = 1e-05
   mixing_mode      = 'plain'
   mixing_beta      = 0.1
   mixing_ndim      = 10
/
&IONS
/
&CELL
/

ATOMIC_SPECIES
Re 186.207 Re.pbe-spn-rrkjus_psl.1.0.0.UPF
Pt 195.084 Pt.pbe-n-rrkjus_psl.1.0.0.UPF

K_POINTS automatic
12 12 1  0 0 0

CELL_PARAMETERS alat
5.43462800000000 0.00000000000000 0.00000000000000
-2.71731400000000 4.93002900000000 0.00000000000000
0.00000000000000 0.00000000000000 24.53459400000000

ATOMIC_POSITIONS alat
Re 0.0000000000 0.0000000000 10.0000000000 
Re 2.7173139000 0.0000000000 10.0000000000 
Pt 1.3586570000 2.4650146000 10.0000000000 
Pt -1.3586570000 2.4650146000 10.0000000000 
Re 2.7173139000 1.4977183000 12.2672968000 
Re 0.0000000000 1.4977183000 12.2672968000 
Pt -1.3586570000 3.9627329000 12.2672968000 
Pt 1.3586570000 3.9627329000 12.2672968000 
Re -0.0000231000 3.0258046000 14.4354992000 
Re 2.7172716000 3.0258099000 14.4354996000 
Pt 4.0758976000 0.6793075000 14.4972416000 
Pt 1.3586099000 0.6793037000 14.4972415000 

