&CONTROL
   calculation      = 'scf'
   tstress          = .true.
   tprnfor          = .true.
   outdir           = './Rh2Pt2'
   prefix           = 'Rh2Pt2_beef'
   pseudo_dir       = '../pseudo'
   tefield          = .true.
   dipfield         = .true.
/
&SYSTEM
   celldm(1)        = 1.889726
   ecutwfc          = 55.123963237125
   ecutrho          = 551.23963237125
   nosym            = .true.
   occupations      = 'smearing'
   degauss          = 0.01D0
   smearing         = 'fd'
   input_dft        = 'BEEF-vdW'
   edir             = 3
   emaxpos          = 0.95
   eopreg           = 0.05
   eamp             = 0.01
   ntyp             = 2
   nat              = 12
   ibrav            = 0
/
&ELECTRONS
   electron_maxstep = 500
   conv_thr         = 1e-05
   mixing_mode      = 'plain'
   mixing_beta      = 0.1
   mixing_ndim      = 10
/
&IONS
/
&CELL
/

ATOMIC_SPECIES
Rh 102.9055 Rh.pbe-spn-rrkjus_psl.1.0.0.UPF
Pt 195.084 Pt.pbe-n-rrkjus_psl.1.0.0.UPF

K_POINTS automatic
12 12 1  0 0 0

CELL_PARAMETERS alat
5.54399200000000 0.00000000000000 0.00000000000000
2.76582200000000 4.80479700000000 0.00000000000000
0.00000000000000 0.00000000000000 24.52832100000000

ATOMIC_POSITIONS alat
Rh 0.0000000000 0.0000000000 10.0000000000 
Rh 4.1549071000 2.4023987000 10.0000000000 
Pt 2.7719961000 0.0000000000 10.0000000000 
Pt 1.3829110000 2.4023987000 10.0000000000 
Rh 5.5439921000 3.2055782000 12.2641603000 
Rh 1.3890851000 0.8031795000 12.2641603000 
Pt 2.7719961000 3.2055782000 12.2641603000 
Pt 4.1610811000 0.8031795000 12.2641603000 
Rh 2.7720419000 1.6028157000 14.4871917000 
Rh 6.9269330000 4.0052042000 14.4871822000 
Pt 5.5640985000 1.6144023000 14.5357495000 
Pt 4.1750030000 4.0168208000 14.5357498000 

