&CONTROL
   calculation      = 'scf'
   tstress          = .true.
   tprnfor          = .true.
   outdir           = './Ru2Re2'
   prefix           = 'Ru2Re2_beef'
   pseudo_dir       = '../pseudo'
   tefield          = .true.
   dipfield         = .true.
/
&SYSTEM
   celldm(1)        = 1.889726
   ecutwfc          = 55.123963237125
   ecutrho          = 551.23963237125
   nosym            = .true.
   occupations      = 'smearing'
   degauss          = 0.01D0
   smearing         = 'fd'
   input_dft        = 'BEEF-vdW'
   edir             = 3
   emaxpos          = 0.95
   eopreg           = 0.05
   eamp             = 0.01
   ntyp             = 2
   nat              = 12
   ibrav            = 0
/
&ELECTRONS
   electron_maxstep = 500
   conv_thr         = 1e-05
   mixing_mode      = 'plain'
   mixing_beta      = 0.1
   mixing_ndim      = 10
/
&IONS
/
&CELL
/

ATOMIC_SPECIES
Ru 101.07 Ru.pbe-spn-rrkjus_psl.1.0.0.UPF
Re 186.207 Re.pbe-spn-rrkjus_psl.1.0.0.UPF

K_POINTS automatic
12 12 1  0 0 0

CELL_PARAMETERS alat
5.46197300000000 0.00000000000000 0.00000000000000
-2.73098600000000 4.73022200000000 0.00000000000000
0.00000000000000 0.00000000000000 24.45968900000000

ATOMIC_POSITIONS alat
Ru 0.0000000000 0.0000000000 10.0000000000 
Ru 2.7309863000 0.0000000000 10.0000000000 
Re 1.3654931000 2.3651111000 10.0000000000 
Re 4.0964794000 2.3651111000 10.0000000000 
Ru 2.7309863000 1.5767306000 12.2298445000 
Ru -0.0000000000 1.5767306000 12.2298445000 
Re -1.3654931000 3.9418417000 12.2298445000 
Re 1.3654931000 3.9418417000 12.2298445000 
Ru -0.0000047000 3.1721029000 14.3849050000 
Ru 2.7309851000 3.1721021000 14.3849093000 
Re 4.0964783000 0.7854166000 14.3349865000 
Re 1.3654957000 0.7854208000 14.3349877000 

