&CONTROL
   calculation      = 'scf'
   tstress          = .true.
   tprnfor          = .true.
   outdir           = './Sc2Re2'
   prefix           = 'Sc2Re2_beef'
   pseudo_dir       = '../pseudo'
   tefield          = .true.
   dipfield         = .true.
/
&SYSTEM
   celldm(1)        = 1.889726
   ecutwfc          = 55.123963237125
   ecutrho          = 551.23963237125
   nosym            = .true.
   occupations      = 'smearing'
   degauss          = 0.01D0
   smearing         = 'fd'
   input_dft        = 'BEEF-vdW'
   edir             = 3
   emaxpos          = 0.95
   eopreg           = 0.05
   eamp             = 0.01
   ntyp             = 2
   nat              = 12
   ibrav            = 0
/
&ELECTRONS
   electron_maxstep = 500
   conv_thr         = 1e-05
   mixing_mode      = 'plain'
   mixing_beta      = 0.1
   mixing_ndim      = 10
/
&IONS
/
&CELL
/

ATOMIC_SPECIES
Sc 44.955908 Sc.pbe-spn-rrkjus_psl.1.0.0.UPF
Re 186.207 Re.pbe-spn-rrkjus_psl.1.0.0.UPF

K_POINTS automatic
12 12 1  0 0 0

CELL_PARAMETERS alat
5.48816900000000 0.00000000000000 0.00000000000000
-2.74408400000000 5.36423800000000 0.00000000000000
0.00000000000000 0.00000000000000 24.71572300000000

ATOMIC_POSITIONS alat
Sc 0.0000000000 0.0000000000 10.0000000000 
Sc 2.7440843000 0.0000000000 10.0000000000 
Re 1.3720422000 2.6821188000 10.0000000000 
Re -1.3720422000 2.6821188000 10.0000000000 
Sc 2.7440843000 1.4037407000 12.3578615000 
Sc 0.0000000000 1.4037407000 12.3578615000 
Re -1.3720422000 4.0858595000 12.3578615000 
Re 1.3720422000 4.0858595000 12.3578615000 
Sc 0.0000990000 2.8902147000 14.9056767000 
Sc 2.7441872000 2.8902190000 14.9056662000 
Re 4.1162037000 0.0566282000 14.4475921000 
Re 1.3721112000 0.0566217000 14.4475953000 

