&CONTROL
   calculation      = 'scf'
   tstress          = .true.
   tprnfor          = .true.
   outdir           = './Sc2Ti2'
   prefix           = 'Sc2Ti2_beef'
   pseudo_dir       = '../pseudo'
   tefield          = .true.
   dipfield         = .true.
/
&SYSTEM
   celldm(1)        = 1.889726
   ecutwfc          = 55.123963237125
   ecutrho          = 551.23963237125
   nosym            = .true.
   occupations      = 'smearing'
   degauss          = 0.01D0
   smearing         = 'fd'
   input_dft        = 'BEEF-vdW'
   edir             = 3
   emaxpos          = 0.95
   eopreg           = 0.05
   eamp             = 0.01
   ntyp             = 2
   nat              = 12
   ibrav            = 0
/
&ELECTRONS
   electron_maxstep = 500
   conv_thr         = 1e-05
   mixing_mode      = 'plain'
   mixing_beta      = 0.1
   mixing_ndim      = 10
/
&IONS
/
&CELL
/

ATOMIC_SPECIES
Sc 44.955908 Sc.pbe-spn-rrkjus_psl.1.0.0.UPF
Ti 47.867 Ti.pbe-spn-rrkjus_psl.1.0.0.UPF

K_POINTS automatic
12 12 1  0 0 0

CELL_PARAMETERS alat
6.09045900000000 0.00000000000000 0.00000000000000
-3.04523000000000 5.34928900000000 0.00000000000000
0.00000000000000 0.00000000000000 25.00724400000000

ATOMIC_POSITIONS alat
Sc 0.0000000000 0.0000000000 10.0000000000 
Sc 3.0452296000 0.0000000000 10.0000000000 
Ti 1.5226148000 2.6746446000 10.0000000000 
Ti -1.5226148000 2.6746446000 10.0000000000 
Sc 3.0452296000 1.7335805000 12.5036218000 
Sc 0.0000000000 1.7335805000 12.5036218000 
Ti -1.5226148000 4.4082251000 12.5036218000 
Ti 1.5226148000 4.4082251000 12.5036218000 
Sc 0.0001510000 3.4611295000 15.0141103000 
Sc 3.0450785000 3.4611096000 15.0140987000 
Ti 4.5678392000 0.7100173000 14.7696167000 
Ti 1.5226205000 0.7100673000 14.7696856000 

