&CONTROL
   calculation      = 'scf'
   tstress          = .true.
   tprnfor          = .true.
   outdir           = './Ti2Cu2'
   prefix           = 'Ti2Cu2_beef'
   pseudo_dir       = '../pseudo'
   tefield          = .true.
   dipfield         = .true.
/
&SYSTEM
   celldm(1)        = 1.889726
   ecutwfc          = 55.123963237125
   ecutrho          = 551.23963237125
   nosym            = .true.
   occupations      = 'smearing'
   degauss          = 0.01D0
   smearing         = 'fd'
   input_dft        = 'BEEF-vdW'
   edir             = 3
   emaxpos          = 0.95
   eopreg           = 0.05
   eamp             = 0.01
   ntyp             = 2
   nat              = 12
   ibrav            = 0
/
&ELECTRONS
   electron_maxstep = 500
   conv_thr         = 1e-05
   mixing_mode      = 'plain'
   mixing_beta      = 0.1
   mixing_ndim      = 10
/
&IONS
/
&CELL
/

ATOMIC_SPECIES
Ti 47.867 Ti.pbe-spn-rrkjus_psl.1.0.0.UPF
Cu 63.546 Cu.pbe-dn-rrkjus_psl.1.0.0.UPF

K_POINTS automatic
12 12 1  0 0 0

CELL_PARAMETERS alat
5.45292200000000 0.00000000000000 0.00000000000000
-2.72646100000000 4.74756300000000 0.00000000000000
0.00000000000000 0.00000000000000 24.46405900000000

ATOMIC_POSITIONS alat
Ti 0.0000000000 0.0000000000 10.0000000000 
Ti 2.7264611000 0.0000000000 10.0000000000 
Cu 1.3632305000 2.3737814000 10.0000000000 
Cu -1.3632305000 2.3737814000 10.0000000000 
Ti 2.7264611000 1.5657697000 12.2320294000 
Ti 0.0000000000 1.5657697000 12.2320294000 
Cu -1.3632305000 3.9395511000 12.2320294000 
Cu 1.3632305000 3.9395511000 12.2320294000 
Ti 0.0000011000 3.2304623000 14.4095741000 
Ti 2.7264672000 3.2312023000 14.4095461000 
Cu 4.0893923000 0.8337663000 14.4337943000 
Cu 1.3635440000 0.8337660000 14.4337790000 

