&CONTROL
   calculation      = 'scf'
   tstress          = .true.
   tprnfor          = .true.
   outdir           = './Ti2Os2'
   prefix           = 'Ti2Os2_beef'
   pseudo_dir       = '../pseudo'
   tefield          = .true.
   dipfield         = .true.
/
&SYSTEM
   celldm(1)        = 1.889726
   ecutwfc          = 55.123963237125
   ecutrho          = 551.23963237125
   nosym            = .true.
   occupations      = 'smearing'
   degauss          = 0.01D0
   smearing         = 'fd'
   input_dft        = 'BEEF-vdW'
   edir             = 3
   emaxpos          = 0.95
   eopreg           = 0.05
   eamp             = 0.01
   ntyp             = 2
   nat              = 12
   ibrav            = 0
/
&ELECTRONS
   electron_maxstep = 500
   conv_thr         = 1e-05
   mixing_mode      = 'plain'
   mixing_beta      = 0.1
   mixing_ndim      = 10
/
&IONS
/
&CELL
/

ATOMIC_SPECIES
Ti 47.867 Ti.pbe-spn-rrkjus_psl.1.0.0.UPF
Os 190.23 Os.pbe-spn-rrkjus_psl.1.0.0.UPF

K_POINTS automatic
12 12 1  0 0 0

CELL_PARAMETERS alat
5.36922100000000 0.00000000000000 0.00000000000000
1.78345200000000 5.06436900000000 0.00000000000000
0.00000000000000 0.00000000000000 24.38200900000000

ATOMIC_POSITIONS alat
Ti 0.0000000000 0.0000000000 10.0000000000 
Ti 3.5763364000 2.5321843000 10.0000000000 
Os 2.6846104000 0.0000000000 10.0000000000 
Os 0.8917261000 2.5321843000 10.0000000000 
Ti 5.3692207000 3.8016156000 12.1910047000 
Ti 1.7928843000 1.2694313000 12.1910047000 
Os 2.6846104000 3.8016156000 12.1910047000 
Os 4.4774946000 1.2694313000 12.1910047000 
Ti 3.5835888000 2.5373175000 14.4130438000 
Ti 0.0072606000 0.0051415000 14.4130463000 
Os 0.9000940000 2.5381081000 14.2492615000 
Os 2.6929794000 0.0059263000 14.2492665000 

