&CONTROL
   calculation      = 'scf'
   tstress          = .true.
   tprnfor          = .true.
   outdir           = './Ti2Zr2'
   prefix           = 'Ti2Zr2_beef'
   pseudo_dir       = '../pseudo'
   tefield          = .true.
   dipfield         = .true.
/
&SYSTEM
   celldm(1)        = 1.889726
   ecutwfc          = 55.123963237125
   ecutrho          = 551.23963237125
   nosym            = .true.
   occupations      = 'smearing'
   degauss          = 0.01D0
   smearing         = 'fd'
   input_dft        = 'BEEF-vdW'
   edir             = 3
   emaxpos          = 0.95
   eopreg           = 0.05
   eamp             = 0.01
   ntyp             = 2
   nat              = 12
   ibrav            = 0
/
&ELECTRONS
   electron_maxstep = 500
   conv_thr         = 1e-05
   mixing_mode      = 'plain'
   mixing_beta      = 0.1
   mixing_ndim      = 10
/
&IONS
/
&CELL
/

ATOMIC_SPECIES
Ti 47.867 Ti.pbe-spn-rrkjus_psl.1.0.0.UPF
Zr 91.224 Zr.pbe-spn-rrkjus_psl.1.0.0.UPF

K_POINTS automatic
12 12 1  0 0 0

CELL_PARAMETERS alat
6.07943900000000 0.00000000000000 0.00000000000000
2.89202500000000 5.34750100000000 0.00000000000000
0.00000000000000 0.00000000000000 24.99862200000000

ATOMIC_POSITIONS alat
Ti 0.0000000000 0.0000000000 10.0000000000 
Ti 4.4857318000 2.6737503000 10.0000000000 
Zr 3.0397193000 0.0000000000 10.0000000000 
Zr 1.4460126000 2.6737503000 10.0000000000 
Ti 6.0794385000 3.6236898000 12.4993111000 
Ti 1.5937067000 0.9499395000 12.4993111000 
Zr 3.0397193000 3.6236898000 12.4993111000 
Zr 4.6334259000 0.9499395000 12.4993111000 
Ti 3.1267557000 1.8637227000 14.8227456000 
Ti 7.6125163000 4.5374940000 14.8227474000 
Zr 6.2878268000 1.9361113000 14.9229633000 
Zr 4.6941634000 4.6097801000 14.9229643000 

