&CONTROL
   calculation      = 'scf'
   tstress          = .true.
   tprnfor          = .true.
   outdir           = './Zr2Re2'
   prefix           = 'Zr2Re2_beef'
   pseudo_dir       = '../pseudo'
   tefield          = .true.
   dipfield         = .true.
/
&SYSTEM
   celldm(1)        = 1.889726
   ecutwfc          = 55.123963237125
   ecutrho          = 551.23963237125
   nosym            = .true.
   occupations      = 'smearing'
   degauss          = 0.01D0
   smearing         = 'fd'
   input_dft        = 'BEEF-vdW'
   edir             = 3
   emaxpos          = 0.95
   eopreg           = 0.05
   eamp             = 0.01
   ntyp             = 2
   nat              = 12
   ibrav            = 0
/
&ELECTRONS
   electron_maxstep = 500
   conv_thr         = 1e-05
   mixing_mode      = 'plain'
   mixing_beta      = 0.1
   mixing_ndim      = 10
/
&IONS
/
&CELL
/

ATOMIC_SPECIES
Zr 91.224 Zr.pbe-spn-rrkjus_psl.1.0.0.UPF
Re 186.207 Re.pbe-spn-rrkjus_psl.1.0.0.UPF

K_POINTS automatic
12 12 1  0 0 0

CELL_PARAMETERS alat
5.71829200000000 0.00000000000000 0.00000000000000
1.90955300000000 5.39003400000000 0.00000000000000
0.00000000000000 0.00000000000000 24.67002000000000

ATOMIC_POSITIONS alat
Zr 0.0000000000 0.0000000000 10.0000000000 
Zr 3.8139225000 2.6950172000 10.0000000000 
Re 2.8591460000 0.0000000000 10.0000000000 
Re 0.9547766000 2.6950172000 10.0000000000 
Zr 5.7182920000 4.0406943000 12.3350098000 
Zr 1.9043694000 1.3456771000 12.3350098000 
Re 2.8591460000 4.0406943000 12.3350098000 
Re 4.7635154000 1.3456771000 12.3350098000 
Zr 3.8100609000 2.6922840000 14.6883081000 
Zr 7.6239963000 5.3873161000 14.6883157000 
Re 6.6680541000 2.6915095000 14.5683851000 
Re 4.7637259000 5.3864827000 14.5683876000 

