&DOS
prefix = 'Ag750_beef',
outdir = './Ag750',
degauss = 0.001,
DeltaE = 0.001,
fildos = 'Ag.dos.out',
/
