&INPUTPP
prefix = 'Ag750_beef',
outdir = './Ag750',
filplot = 'Ag-wf.dat',
plot_num = 11
/
