&PROJWFC
prefix = 'Ag750_beef',
outdir = './Ag750',
degauss = 0.001,
DeltaE = 0.001,
filpdos = 'Ag.pdos.out',
filproj = 'Ag.proj.out',
/
