&DOS
prefix = 'Au750_beef',
outdir = './Au750',
degauss = 0.001,
DeltaE = 0.001,
fildos = 'Au.dos.out',
/
