&INPUTPP
prefix = 'Au750_beef',
outdir = './Au750',
filplot = 'Au-wf.dat',
plot_num = 11
/
