&PROJWFC
prefix = 'Au750_beef',
outdir = './Au750',
degauss = 0.001,
DeltaE = 0.001,
filpdos = 'Au.pdos.out',
filproj = 'Au.proj.out',
/
