&INPUTPP
prefix = 'Cd750_beef',
outdir = './Cd750',
filplot = 'Cd-wf.dat',
plot_num = 11
/
