&PROJWFC
prefix = 'Cd750_beef',
outdir = './Cd750',
degauss = 0.001,
DeltaE = 0.001,
filpdos = 'Cd.pdos.out',
filproj = 'Cd.proj.out',
/
