&DOS
prefix = 'Co750_beef',
outdir = './Co750',
degauss = 0.001,
DeltaE = 0.001,
fildos = 'Co.dos.out',
/
