&INPUTPP
prefix = 'Co750_beef',
outdir = './Co750',
filplot = 'Co-wf.dat',
plot_num = 11
/
