&DOS
prefix = 'Cr750_beef',
outdir = './Cr750',
degauss = 0.001,
DeltaE = 0.001,
fildos = 'Cr.dos.out',
/
