&PROJWFC
prefix = 'Cr750_beef',
outdir = './Cr750',
degauss = 0.001,
DeltaE = 0.001,
filpdos = 'Cr.pdos.out',
filproj = 'Cr.proj.out',
/
