&INPUTPP
prefix = 'Cr750_beef',
outdir = './Cr750',
filplot = 'Cr-wf.dat',
plot_num = 11
/
