&DOS
prefix = 'Cu750_beef',
outdir = './Cu750',
degauss = 0.001,
DeltaE = 0.001,
fildos = 'Cu.dos.out',
/
