&PROJWFC
prefix = 'Cu750_beef',
outdir = './Cu750',
degauss = 0.001,
DeltaE = 0.001,
filpdos = 'Cu.pdos.out',
filproj = 'Cu.proj.out',
/
