&INPUTPP
prefix = 'Cu750_beef',
outdir = './Cu750',
filplot = 'Cu-wf.dat',
plot_num = 11
/
