&DOS
prefix = 'Hf750_beef',
outdir = './Hf750',
degauss = 0.001,
DeltaE = 0.001,
fildos = 'Hf.dos.out',
/
