&PROJWFC
prefix = 'Hf750_beef',
outdir = './Hf750',
degauss = 0.001,
DeltaE = 0.001,
filpdos = 'Hf.pdos.out',
filproj = 'Hf.proj.out',
/
