&INPUTPP
prefix = 'Hf750_beef',
outdir = './Hf750',
filplot = 'Hf-wf.dat',
plot_num = 11
/
