&DOS
prefix = 'Hg750_beef',
outdir = './Hg750',
degauss = 0.001,
DeltaE = 0.001,
fildos = 'Hg.dos.out',
/
