&PROJWFC
prefix = 'Hg750_beef',
outdir = './Hg750',
degauss = 0.001,
DeltaE = 0.001,
filpdos = 'Hg.pdos.out',
filproj = 'Hg.proj.out',
/
