&INPUTPP
prefix = 'Hg750_beef',
outdir = './Hg750',
filplot = 'Hg-wf.dat',
plot_num = 11
/
