&DOS
prefix = 'Ir750_beef',
outdir = './Ir750',
degauss = 0.001,
DeltaE = 0.001,
fildos = 'Ir.dos.out',
/
