&INPUTPP
prefix = 'Ir750_beef',
outdir = './Ir750',
filplot = 'Ir-wf.dat',
plot_num = 11
/
