&PROJWFC
prefix = 'Ir750_beef',
outdir = './Ir750',
degauss = 0.001,
DeltaE = 0.001,
filpdos = 'Ir.pdos.out',
filproj = 'Ir.proj.out',
/
