&CONTROL
   calculation      = 'scf'
   tstress          = .true.
   tprnfor          = .true.
   outdir           = './Ag2Cd2'
   prefix           = 'Ag2Cd2_beef'
   pseudo_dir       = '../pseudo'
   tefield          = .true.
   dipfield         = .true.
/
&SYSTEM
   celldm(1)        = 1.889726
   ecutwfc          = 55.123963237125
   ecutrho          = 551.23963237125
   nosym            = .true.
   occupations      = 'smearing'
   degauss          = 0.01D0
   smearing         = 'fd'
   input_dft        = 'BEEF-vdW'
   edir             = 3
   emaxpos          = 0.95
   eopreg           = 0.05
   eamp             = 0.01
   ntyp             = 2
   nat              = 12
   ibrav            = 0
/
&ELECTRONS
   electron_maxstep = 500
   conv_thr         = 1e-05
   mixing_mode      = 'plain'
   mixing_beta      = 0.1
   mixing_ndim      = 10
/
&IONS
/
&CELL
/

ATOMIC_SPECIES
Ag 107.8682 Ag.pbe-n-rrkjus_psl.1.0.0.UPF
Cd 112.414 Cd.pbe-n-rrkjus_psl.1.0.0.UPF

K_POINTS automatic
12 12 1  0 0 0

CELL_PARAMETERS alat
6.02031400000000 0.00000000000000 0.00000000000000
2.61388100000000 5.42326600000000 0.00000000000000
0.00000000000000 0.00000000000000 24.98335100000000

ATOMIC_POSITIONS alat
Ag 0.0000000000 0.0000000000 10.0000000000 
Ag 4.3170975000 2.7116330000 10.0000000000 
Cd 3.0101572000 0.0000000000 10.0000000000 
Cd 1.3069403000 2.7116330000 10.0000000000 
Ag 6.0203144000 3.7814488000 12.4916757000 
Ag 1.7032169000 1.0698158000 12.4916757000 
Cd 3.0101572000 3.7814488000 12.4916757000 
Cd 4.7133741000 1.0698158000 12.4916757000 
Ag 3.3911687000 2.1300421000 15.0110982000 
Ag 7.7082451000 4.8416773000 15.0111055000 
Cd 6.4215473000 2.1427387000 15.2366152000 
Cd 4.7183143000 4.8543556000 15.2365734000 

