&CONTROL
   calculation      = 'scf'
   tstress          = .true.
   tprnfor          = .true.
   outdir           = './Ag2Hf2'
   prefix           = 'Ag2Hf2_beef'
   pseudo_dir       = '../pseudo'
   tefield          = .true.
   dipfield         = .true.
/
&SYSTEM
   celldm(1)        = 1.889726
   ecutwfc          = 55.123963237125
   ecutrho          = 551.23963237125
   nosym            = .true.
   occupations      = 'smearing'
   degauss          = 0.01D0
   smearing         = 'fd'
   input_dft        = 'BEEF-vdW'
   edir             = 3
   emaxpos          = 0.95
   eopreg           = 0.05
   eamp             = 0.01
   ntyp             = 2
   nat              = 12
   ibrav            = 0
/
&ELECTRONS
   electron_maxstep = 500
   conv_thr         = 1e-05
   mixing_mode      = 'plain'
   mixing_beta      = 0.1
   mixing_ndim      = 10
/
&IONS
/
&CELL
/

ATOMIC_SPECIES
Ag 107.8682 Ag.pbe-n-rrkjus_psl.1.0.0.UPF
Hf 178.49 Hf.pbe-spn-rrkjus_psl.1.0.0.UPF

K_POINTS automatic
12 12 1  0 0 0

CELL_PARAMETERS alat
6.01636600000000 0.00000000000000 0.00000000000000
-3.00818300000000 5.31997400000000 0.00000000000000
0.00000000000000 0.00000000000000 24.96219100000000

ATOMIC_POSITIONS alat
Ag 0.0000000000 0.0000000000 10.0000000000 
Ag 3.0081830000 0.0000000000 10.0000000000 
Hf 1.5040915000 2.6599868000 10.0000000000 
Hf -1.5040915000 2.6599868000 10.0000000000 
Ag 3.0081830000 1.7009793000 12.4810954000 
Ag 0.0000000000 1.7009793000 12.4810954000 
Hf -1.5040915000 4.3609661000 12.4810954000 
Hf 1.5040915000 4.3609661000 12.4810954000 
Ag 0.0000035000 3.4886659000 15.0061479000 
Ag 3.0081772000 3.4886631000 15.0061464000 
Hf 4.5122717000 0.8295712000 14.8509347000 
Hf 1.5040918000 0.8295604000 14.8509198000 

