&CONTROL
   calculation      = 'scf'
   tstress          = .true.
   tprnfor          = .true.
   outdir           = './Ag2Os2'
   prefix           = 'Ag2Os2_beef'
   pseudo_dir       = '../pseudo'
   tefield          = .true.
   dipfield         = .true.
/
&SYSTEM
   celldm(1)        = 1.889726
   ecutwfc          = 55.123963237125
   ecutrho          = 551.23963237125
   nosym            = .true.
   occupations      = 'smearing'
   degauss          = 0.01D0
   smearing         = 'fd'
   input_dft        = 'BEEF-vdW'
   edir             = 3
   emaxpos          = 0.95
   eopreg           = 0.05
   eamp             = 0.01
   ntyp             = 2
   nat              = 12
   ibrav            = 0
/
&ELECTRONS
   electron_maxstep = 500
   conv_thr         = 1e-05
   mixing_mode      = 'plain'
   mixing_beta      = 0.1
   mixing_ndim      = 10
/
&IONS
/
&CELL
/

ATOMIC_SPECIES
Ag 107.8682 Ag.pbe-n-rrkjus_psl.1.0.0.UPF
Os 190.23 Os.pbe-spn-rrkjus_psl.1.0.0.UPF

K_POINTS automatic
12 12 1  0 0 0

CELL_PARAMETERS alat
5.30531800000000 0.00000000000000 0.00000000000000
-2.65265900000000 5.33448400000000 0.00000000000000
0.00000000000000 0.00000000000000 24.60288300000000

ATOMIC_POSITIONS alat
Ag 0.0000000000 0.0000000000 10.0000000000 
Ag 2.6526591000 0.0000000000 10.0000000000 
Os 1.3263296000 2.6672421000 10.0000000000 
Os -1.3263296000 2.6672421000 10.0000000000 
Ag 2.6526591000 1.3190780000 12.3014417000 
Ag 0.0000000000 1.3190780000 12.3014417000 
Os -1.3263296000 3.9863200000 12.3014417000 
Os 1.3263296000 3.9863200000 12.3014417000 
Ag 0.0020270000 0.3397652000 14.9196032000 
Ag 2.6529781000 0.3396771000 14.9196325000 
Os 1.3275730000 3.0909683000 14.4495052000 
Os -1.3251147000 3.0911127000 14.4486565000 

