&CONTROL
   calculation      = 'scf'
   tstress          = .true.
   tprnfor          = .true.
   outdir           = './Cd2Y2'
   prefix           = 'Cd2Y2_beef'
   pseudo_dir       = '../pseudo'
   tefield          = .true.
   dipfield         = .true.
/
&SYSTEM
   celldm(1)        = 1.889726
   ecutwfc          = 55.123963237125
   ecutrho          = 551.23963237125
   nosym            = .true.
   occupations      = 'smearing'
   degauss          = 0.01D0
   smearing         = 'fd'
   input_dft        = 'BEEF-vdW'
   edir             = 3
   emaxpos          = 0.95
   eopreg           = 0.05
   eamp             = 0.01
   ntyp             = 2
   nat              = 12
   ibrav            = 0
/
&ELECTRONS
   electron_maxstep = 500
   conv_thr         = 1e-05
   mixing_mode      = 'plain'
   mixing_beta      = 0.1
   mixing_ndim      = 10
/
&IONS
/
&CELL
/

ATOMIC_SPECIES
Cd 112.414 Cd.pbe-n-rrkjus_psl.1.0.0.UPF
Y 88.90584 Y.pbe-spn-rrkjus_psl.1.0.0.UPF

K_POINTS automatic
12 12 1  0 0 0

CELL_PARAMETERS alat
6.49911500000000 0.00000000000000 0.00000000000000
2.32175300000000 6.07025200000000 0.00000000000000
0.00000000000000 0.00000000000000 25.34638800000000

ATOMIC_POSITIONS alat
Cd 0.0000000000 0.0000000000 10.0000000000 
Cd 4.4104339000 3.0351261000 10.0000000000 
Y 3.2495576000 0.0000000000 10.0000000000 
Y 1.1608764000 3.0351261000 10.0000000000 
Cd 6.4991151000 4.4724928000 12.6731942000 
Cd 2.0886812000 1.4373667000 12.6731942000 
Y 3.2495576000 4.4724928000 12.6731942000 
Y 5.3382388000 1.4373667000 12.6731942000 
Cd 4.2994729000 2.9581318000 15.3803524000 
Cd 8.7090759000 5.9939746000 15.3804706000 
Y 7.5419934000 2.9545441000 15.3132812000 
Y 5.4532745000 5.9884291000 15.3132674000 

