&CONTROL
   calculation      = 'scf'
   tstress          = .true.
   tprnfor          = .true.
   outdir           = './Co2Ag2'
   prefix           = 'Co2Ag2_beef'
   pseudo_dir       = '../pseudo'
   tefield          = .true.
   dipfield         = .true.
/
&SYSTEM
   celldm(1)        = 1.889726
   ecutwfc          = 55.123963237125
   ecutrho          = 551.23963237125
   nosym            = .true.
   occupations      = 'smearing'
   degauss          = 0.01D0
   smearing         = 'fd'
   input_dft        = 'BEEF-vdW'
   edir             = 3
   emaxpos          = 0.95
   eopreg           = 0.05
   eamp             = 0.01
   nspin            = 2
   starting_magnetization(1) = 0.7058823529411765
   starting_magnetization(2) = 0.0
   ntyp             = 2
   nat              = 12
   ibrav            = 0
/
&ELECTRONS
   electron_maxstep = 500
   conv_thr         = 1e-05
   mixing_mode      = 'plain'
   mixing_beta      = 0.1
   mixing_ndim      = 10
/
&IONS
/
&CELL
/

ATOMIC_SPECIES
Co  58.933194 Co.pbe-spn-rrkjus_psl.0.3.1.UPF
Ag  107.8682 Ag.pbe-n-rrkjus_psl.1.0.0.UPF

K_POINTS automatic
12 12 1  0 0 0

CELL_PARAMETERS alat
5.39688600000000 0.00000000000000 0.00000000000000
-2.69844300000000 4.92230800000000 0.00000000000000
0.00000000000000 0.00000000000000 24.51364700000000

ATOMIC_POSITIONS alat
Co  0.0000000000 0.0000000000 10.0000000000
Co  2.6984431000 0.0000000000 10.0000000000
Ag  1.3492215000 2.4611538000 10.0000000000
Ag  -1.3492215000 2.4611538000 10.0000000000
Co  2.6984431000 1.4793052000 12.2568233000
Co  -0.0000000000 1.4793052000 12.2568233000
Ag  -1.3492215000 3.9404590000 12.2568233000
Ag  1.3492215000 3.9404590000 12.2568233000
Co  0.0000963000 2.6202626000 14.2612330000
Co  2.6985428000 2.6201224000 14.2611415000
Ag  4.0473750000 0.2702824000 14.7311116000
Ag  1.3500779000 0.2702843000 14.7311085000

