&CONTROL
   calculation      = 'scf'
   tstress          = .true.
   tprnfor          = .true.
   outdir           = './Co2Cu2'
   prefix           = 'Co2Cu2_beef'
   pseudo_dir       = '../pseudo'
   tefield          = .true.
   dipfield         = .true.
/
&SYSTEM
   celldm(1)        = 1.889726
   ecutwfc          = 55.123963237125
   ecutrho          = 551.23963237125
   nosym            = .true.
   occupations      = 'smearing'
   degauss          = 0.01D0
   smearing         = 'fd'
   input_dft        = 'BEEF-vdW'
   edir             = 3
   emaxpos          = 0.95
   eopreg           = 0.05
   eamp             = 0.01
   nspin            = 2
   starting_magnetization(1) = 0.7058823529411765
   starting_magnetization(2) = 0.0
   ntyp             = 2
   nat              = 12
   ibrav            = 0
/
&ELECTRONS
   electron_maxstep = 500
   conv_thr         = 1e-05
   mixing_mode      = 'plain'
   mixing_beta      = 0.1
   mixing_ndim      = 10
/
&IONS
/
&CELL
/

ATOMIC_SPECIES
Co  58.933194 Co.pbe-spn-rrkjus_psl.0.3.1.UPF
Cu  63.546 Cu.pbe-dn-rrkjus_psl.1.0.0.UPF

K_POINTS automatic
12 12 1  0 0 0

CELL_PARAMETERS alat
4.95207900000000 0.00000000000000 0.00000000000000
-2.47604000000000 4.55003400000000 0.00000000000000
0.00000000000000 0.00000000000000 24.15463700000000

ATOMIC_POSITIONS alat
Co  0.0000000000 0.0000000000 10.0000000000
Co  2.4760396000 0.0000000000 10.0000000000
Cu  1.2380198000 2.2750170000 10.0000000000
Cu  -1.2380198000 2.2750170000 10.0000000000
Co  2.4760396000 1.3474124000 12.0773184000
Co  0.0000000000 1.3474124000 12.0773184000
Cu  -1.2380198000 3.6224293000 12.0773184000
Cu  1.2380198000 3.6224293000 12.0773184000
Co  0.0000010000 2.6480668000 14.0826092000
Co  2.4760390000 2.6480062000 14.0828274000
Cu  3.7137326000 0.3967044000 14.2048148000
Cu  1.2383495000 0.3967075000 14.2048156000

