&CONTROL
   calculation      = 'scf'
   tstress          = .true.
   tprnfor          = .true.
   outdir           = './Co2La2'
   prefix           = 'Co2La2_beef'
   pseudo_dir       = '../pseudo'
   tefield          = .true.
   dipfield         = .true.
/
&SYSTEM
   celldm(1)        = 1.889726
   ecutwfc          = 55.123963237125
   ecutrho          = 551.23963237125
   nosym            = .true.
   occupations      = 'smearing'
   degauss          = 0.01D0
   smearing         = 'fd'
   input_dft        = 'BEEF-vdW'
   edir             = 3
   emaxpos          = 0.95
   eopreg           = 0.05
   eamp             = 0.01
   nspin            = 2
   starting_magnetization(1) = 0.7058823529411765
   starting_magnetization(2) = 0.0
   ntyp             = 2
   nat              = 12
   ibrav            = 0
/
&ELECTRONS
   electron_maxstep = 500
   conv_thr         = 1e-05
   mixing_mode      = 'plain'
   mixing_beta      = 0.1
   mixing_ndim      = 10
/
&IONS
/
&CELL
/

ATOMIC_SPECIES
Co  58.933194 Co.pbe-spn-rrkjus_psl.0.3.1.UPF
La  138.90547 La.pbe-spfn-rrkjus_psl.1.0.0.UPF

K_POINTS automatic
12 12 1  0 0 0

CELL_PARAMETERS alat
6.15577200000000 0.00000000000000 0.00000000000000
2.05866100000000 5.80133100000000 0.00000000000000
0.00000000000000 0.00000000000000 25.02821400000000

ATOMIC_POSITIONS alat
Co  0.0000000000 0.0000000000 10.0000000000
Co  4.1072165000 2.9006656000 10.0000000000
La  3.0778860000 0.0000000000 10.0000000000
La  1.0293305000 2.9006656000 10.0000000000
Co  6.1557720000 4.3474300000 12.5141070000
Co  2.0485555000 1.4467644000 12.5141070000
La  3.0778860000 4.3474300000 12.5141070000
La  5.1264415000 1.4467644000 12.5141070000
Co  4.0942688000 2.8915498000 14.6870397000
Co  8.2016334000 5.7922805000 14.6870075000
La  7.1805472000 2.8974502000 15.0624719000
La  5.1319857000 5.7981147000 15.0625265000

