&CONTROL
   calculation      = 'scf'
   tstress          = .true.
   tprnfor          = .true.
   outdir           = './Co2Pt2'
   prefix           = 'Co2Pt2_beef'
   pseudo_dir       = '../pseudo'
   tefield          = .true.
   dipfield         = .true.
/
&SYSTEM
   celldm(1)        = 1.889726
   ecutwfc          = 55.123963237125
   ecutrho          = 551.23963237125
   nosym            = .true.
   occupations      = 'smearing'
   degauss          = 0.01D0
   smearing         = 'fd'
   input_dft        = 'BEEF-vdW'
   edir             = 3
   emaxpos          = 0.95
   eopreg           = 0.05
   eamp             = 0.01
   nspin            = 2
   starting_magnetization(1) = 0.7058823529411765
   starting_magnetization(2) = 0.0
   ntyp             = 2
   nat              = 12
   ibrav            = 0
/
&ELECTRONS
   electron_maxstep = 500
   conv_thr         = 1e-05
   mixing_mode      = 'plain'
   mixing_beta      = 0.1
   mixing_ndim      = 10
/
&IONS
/
&CELL
/

ATOMIC_SPECIES
Co  58.933194 Co.pbe-spn-rrkjus_psl.0.3.1.UPF
Pt  195.084 Pt.pbe-n-rrkjus_psl.1.0.0.UPF

K_POINTS automatic
12 12 1  0 0 0

CELL_PARAMETERS alat
5.35178000000000 0.00000000000000 0.00000000000000
2.61001800000000 4.67218900000000 0.00000000000000
0.00000000000000 0.00000000000000 24.38641900000000

ATOMIC_POSITIONS alat
Co  0.0000000000 0.0000000000 10.0000000000
Co  3.9808989000 2.3360946000 10.0000000000
Pt  2.6758899000 0.0000000000 10.0000000000
Pt  1.3050090000 2.3360946000 10.0000000000
Co  5.3517797000 3.1405631000 12.1932097000
Co  1.3708809000 0.8044684000 12.1932097000
Pt  2.6758899000 3.1405631000 12.1932097000
Pt  4.0467708000 0.8044684000 12.1932097000
Co  2.7186105000 1.5953516000 14.3079556000
Co  6.6995647000 3.9314779000 14.3081604000
Pt  5.4583787000 1.6328395000 14.3727479000
Pt  4.0875005000 3.9689299000 14.3727478000

