&CONTROL
   calculation      = 'scf'
   tstress          = .true.
   tprnfor          = .true.
   outdir           = './Co2Pd2'
   prefix           = 'Co2Pd2_beef'
   pseudo_dir       = '../pseudo'
   tefield          = .true.
   dipfield         = .true.
/
&SYSTEM
   celldm(1)        = 1.889726
   ecutwfc          = 55.123963237125
   ecutrho          = 551.23963237125
   nosym            = .true.
   occupations      = 'smearing'
   degauss          = 0.01D0
   smearing         = 'fd'
   input_dft        = 'BEEF-vdW'
   edir             = 3
   emaxpos          = 0.95
   eopreg           = 0.05
   eamp             = 0.01
   nspin            = 2
   starting_magnetization(1) = 0.7058823529411765
   starting_magnetization(2) = 0.0
   ntyp             = 2
   nat              = 12
   ibrav            = 0
/
&ELECTRONS
   electron_maxstep = 500
   conv_thr         = 1e-05
   mixing_mode      = 'plain'
   mixing_beta      = 0.1
   mixing_ndim      = 10
/
&IONS
/
&CELL
/

ATOMIC_SPECIES
Co  58.933194 Co.pbe-spn-rrkjus_psl.0.3.1.UPF
Pd  106.42 Pd.pbe-n-rrkjus_psl.1.0.0.UPF

K_POINTS automatic
12 12 1  0 0 0

CELL_PARAMETERS alat
5.35547600000000 0.00000000000000 0.00000000000000
2.64937000000000 4.65424200000000 0.00000000000000
0.00000000000000 0.00000000000000 24.38022400000000

ATOMIC_POSITIONS alat
Co  0.0000000000 0.0000000000 10.0000000000
Co  4.0024230000 2.3271210000 10.0000000000
Pd  2.6777382000 0.0000000000 10.0000000000
Pd  1.3246848000 2.3271210000 10.0000000000
Co  5.3554764000 3.1138242000 12.1901119000
Co  1.3530534000 0.7867032000 12.1901119000
Pd  2.6777382000 3.1138242000 12.1901119000
Pd  4.0307916000 0.7867032000 12.1901119000
Co  2.6801532000 1.5583152000 14.2669052000
Co  6.6826875000 3.8855032000 14.2670280000
Pd  5.4241199000 1.5967828000 14.4089633000
Pd  4.0710305000 3.9239640000 14.4089636000

