&CONTROL
   calculation      = 'scf'
   tstress          = .true.
   tprnfor          = .true.
   outdir           = './Co2V2'
   prefix           = 'Co2V2_beef'
   pseudo_dir       = '../pseudo'
   tefield          = .true.
   dipfield         = .true.
/
&SYSTEM
   celldm(1)        = 1.889726
   ecutwfc          = 55.123963237125
   ecutrho          = 551.23963237125
   nosym            = .true.
   occupations      = 'smearing'
   degauss          = 0.01D0
   smearing         = 'fd'
   input_dft        = 'BEEF-vdW'
   edir             = 3
   emaxpos          = 0.95
   eopreg           = 0.05
   eamp             = 0.01
   nspin            = 2
   starting_magnetization(1) = 0.7058823529411765
   starting_magnetization(2) = 0.0
   ntyp             = 2
   nat              = 12
   ibrav            = 0
/
&ELECTRONS
   electron_maxstep = 500
   conv_thr         = 1e-05
   mixing_mode      = 'plain'
   mixing_beta      = 0.1
   mixing_ndim      = 10
/
&IONS
/
&CELL
/

ATOMIC_SPECIES
Co  58.933194 Co.pbe-spn-rrkjus_psl.0.3.1.UPF
V  50.9415 V.pbe-spnl-rrkjus_psl.1.0.0.UPF

K_POINTS automatic
12 12 1  0 0 0

CELL_PARAMETERS alat
5.06432800000000 0.00000000000000 0.00000000000000
2.39576600000000 4.46180800000000 0.00000000000000
0.00000000000000 0.00000000000000 24.16657900000000

ATOMIC_POSITIONS alat
Co  0.0000000000 0.0000000000 10.0000000000
Co  3.7300473000 2.2309038000 10.0000000000
V  2.5321642000 0.0000000000 10.0000000000
V  1.1978831000 2.2309038000 10.0000000000
Co  5.0643285000 3.0289239000 12.0832896000
Co  1.3342811000 0.7980201000 12.0832896000
V  2.5321642000 3.0289239000 12.0832896000
V  3.8664453000 0.7980201000 12.0832896000
Co  2.8656215000 1.7139074000 14.0785937000
Co  6.5955655000 3.9447299000 14.0785663000
V  5.4194183000 1.7267614000 14.1564261000
V  4.0848626000 3.9576515000 14.1564291000

