&CONTROL
   calculation      = 'scf'
   tstress          = .true.
   tprnfor          = .true.
   outdir           = './Co2Y2'
   prefix           = 'Co2Y2_beef'
   pseudo_dir       = '../pseudo'
   tefield          = .true.
   dipfield         = .true.
/
&SYSTEM
   celldm(1)        = 1.889726
   ecutwfc          = 55.123963237125
   ecutrho          = 551.23963237125
   nosym            = .true.
   occupations      = 'smearing'
   degauss          = 0.01D0
   smearing         = 'fd'
   input_dft        = 'BEEF-vdW'
   edir             = 3
   emaxpos          = 0.95
   eopreg           = 0.05
   eamp             = 0.01
   nspin            = 2
   starting_magnetization(1) = 0.7058823529411765
   starting_magnetization(2) = 0.0
   ntyp             = 2
   nat              = 12
   ibrav            = 0
/
&ELECTRONS
   electron_maxstep = 500
   conv_thr         = 1e-05
   mixing_mode      = 'plain'
   mixing_beta      = 0.1
   mixing_ndim      = 10
/
&IONS
/
&CELL
/

ATOMIC_SPECIES
Co  58.933194 Co.pbe-spn-rrkjus_psl.0.3.1.UPF
Y  88.90584 Y.pbe-spn-rrkjus_psl.1.0.0.UPF

K_POINTS automatic
12 12 1  0 0 0

CELL_PARAMETERS alat
5.82695700000000 0.00000000000000 0.00000000000000
1.93986400000000 5.49457600000000 0.00000000000000
0.00000000000000 0.00000000000000 24.75693700000000

ATOMIC_POSITIONS alat
Co  0.0000000000 0.0000000000 10.0000000000
Co  3.8834105000 2.7472879000 10.0000000000
Y  2.9134787000 0.0000000000 10.0000000000
Y  0.9699318000 2.7472879000 10.0000000000
Co  5.8269575000 4.1222347000 12.3784684000
Co  1.9435469000 1.3749468000 12.3784684000
Y  2.9134787000 4.1222347000 12.3784684000
Y  4.8570257000 1.3749468000 12.3784684000
Co  3.8864425000 2.7494524000 14.5663494000
Co  0.0029912000 0.0021120000 14.5662859000
Y  0.9723568000 2.7490031000 14.8003641000
Y  2.9159204000 0.0017254000 14.8003700000

