&CONTROL
   calculation      = 'scf'
   tstress          = .true.
   tprnfor          = .true.
   outdir           = './Cr2Au2'
   prefix           = 'Cr2Au2_beef'
   pseudo_dir       = '../pseudo'
   tefield          = .true.
   dipfield         = .true.
/
&SYSTEM
   celldm(1)        = 1.889726
   ecutwfc          = 55.123963237125
   ecutrho          = 551.23963237125
   nosym            = .true.
   occupations      = 'smearing'
   degauss          = 0.01D0
   smearing         = 'fd'
   input_dft        = 'BEEF-vdW'
   edir             = 3
   emaxpos          = 0.95
   eopreg           = 0.05
   eamp             = 0.01
   ntyp             = 2
   nat              = 12
   ibrav            = 0
/
&ELECTRONS
   electron_maxstep = 500
   conv_thr         = 1e-05
   mixing_mode      = 'plain'
   mixing_beta      = 0.1
   mixing_ndim      = 10
/
&IONS
/
&CELL
/

ATOMIC_SPECIES
Cr 51.9961 Cr.pbe-spn-rrkjus_psl.1.0.0.UPF
Au 196.966569 Au.pbe-n-rrkjus_psl.1.0.0.UPF

K_POINTS automatic
12 12 1  0 0 0

CELL_PARAMETERS alat
5.40078600000000 0.00000000000000 0.00000000000000
-2.70039300000000 4.92092500000000 0.00000000000000
0.00000000000000 0.00000000000000 24.51495900000000

ATOMIC_POSITIONS alat
Cr 0.0000000000 0.0000000000 10.0000000000 
Cr 2.7003930000 0.0000000000 10.0000000000 
Au 1.3501965000 2.4604623000 10.0000000000 
Au -1.3501965000 2.4604623000 10.0000000000 
Cr 2.7003930000 1.4818602000 12.2574793000 
Cr -0.0000000000 1.4818602000 12.2574793000 
Au -1.3501965000 3.9423226000 12.2574793000 
Au 1.3501965000 3.9423226000 12.2574793000 
Cr -0.0003246000 1.9786822000 14.0251165000 
Cr 2.7000774000 1.9796391000 14.0273138000 
Au 1.3503997000 4.6827524000 15.0082216000 
Au -1.3510113000 4.6827343000 15.0082409000 

