&CONTROL
   calculation      = 'scf'
   tstress          = .true.
   tprnfor          = .true.
   outdir           = './Cr2Cd2'
   prefix           = 'Cr2Cd2_beef'
   pseudo_dir       = '../pseudo'
   tefield          = .true.
   dipfield         = .true.
/
&SYSTEM
   celldm(1)        = 1.889726
   ecutwfc          = 55.123963237125
   ecutrho          = 551.23963237125
   nosym            = .true.
   occupations      = 'smearing'
   degauss          = 0.01D0
   smearing         = 'fd'
   input_dft        = 'BEEF-vdW'
   edir             = 3
   emaxpos          = 0.95
   eopreg           = 0.05
   eamp             = 0.01
   ntyp             = 2
   nat              = 12
   ibrav            = 0
/
&ELECTRONS
   electron_maxstep = 500
   conv_thr         = 1e-05
   mixing_mode      = 'plain'
   mixing_beta      = 0.1
   mixing_ndim      = 10
/
&IONS
/
&CELL
/

ATOMIC_SPECIES
Cr 51.9961 Cr.pbe-spn-rrkjus_psl.1.0.0.UPF
Cd 112.414 Cd.pbe-n-rrkjus_psl.1.0.0.UPF

K_POINTS automatic
12 12 1  0 0 0

CELL_PARAMETERS alat
5.41189400000000 0.00000000000000 0.00000000000000
-2.70594700000000 5.18152900000000 0.00000000000000
0.00000000000000 0.00000000000000 24.61529000000000

ATOMIC_POSITIONS alat
Cr 0.0000000000 0.0000000000 10.0000000000 
Cr 2.7059469000 0.0000000000 10.0000000000 
Cd 1.3529735000 2.5907644000 10.0000000000 
Cd -1.3529735000 2.5907644000 10.0000000000 
Cr 2.7059469000 1.4131252000 12.3076451000 
Cr -0.0000000000 1.4131252000 12.3076451000 
Cd -1.3529735000 4.0038896000 12.3076451000 
Cd 1.3529735000 4.0038896000 12.3076451000 
Cr -0.0003283000 2.0694951000 14.0444254000 
Cr 2.7056106000 2.0695235000 14.0440975000 
Cd 1.3530948000 4.8617103000 15.1246822000 
Cd -1.3537848000 4.8616857000 15.1247002000 

