&CONTROL
   calculation      = 'scf'
   tstress          = .true.
   tprnfor          = .true.
   outdir           = './Cr2Rh2'
   prefix           = 'Cr2Rh2_beef'
   pseudo_dir       = '../pseudo'
   tefield          = .true.
   dipfield         = .true.
/
&SYSTEM
   celldm(1)        = 1.889726
   ecutwfc          = 55.123963237125
   ecutrho          = 551.23963237125
   nosym            = .true.
   occupations      = 'smearing'
   degauss          = 0.01D0
   smearing         = 'fd'
   input_dft        = 'BEEF-vdW'
   edir             = 3
   emaxpos          = 0.95
   eopreg           = 0.05
   eamp             = 0.01
   ntyp             = 2
   nat              = 12
   ibrav            = 0
/
&ELECTRONS
   electron_maxstep = 500
   conv_thr         = 1e-05
   mixing_mode      = 'plain'
   mixing_beta      = 0.1
   mixing_ndim      = 10
/
&IONS
/
&CELL
/

ATOMIC_SPECIES
Cr 51.9961 Cr.pbe-spn-rrkjus_psl.1.0.0.UPF
Rh 102.9055 Rh.pbe-spn-rrkjus_psl.1.0.0.UPF

K_POINTS automatic
12 12 1  0 0 0

CELL_PARAMETERS alat
5.27306100000000 0.00000000000000 0.00000000000000
2.60178500000000 4.58649000000000 0.00000000000000
0.00000000000000 0.00000000000000 24.31454900000000

ATOMIC_POSITIONS alat
Cr 0.0000000000 0.0000000000 10.0000000000 
Cr 3.9374232000 2.2932448000 10.0000000000 
Rh 2.6365305000 0.0000000000 10.0000000000 
Rh 1.3008927000 2.2932448000 10.0000000000 
Cr 5.2730611000 3.0711506000 12.1572747000 
Cr 1.3356379000 0.7779059000 12.1572747000 
Rh 2.6365305000 3.0711506000 12.1572747000 
Rh 3.9721684000 0.7779059000 12.1572747000 
Cr 2.6382412000 1.5365716000 14.1597522000 
Cr 6.5756740000 3.8298226000 14.1597681000 
Rh 5.3535627000 1.5824822000 14.2750137000 
Rh 4.0179435000 3.8756957000 14.2750137000 

