&CONTROL
   calculation      = 'scf'
   tstress          = .true.
   tprnfor          = .true.
   outdir           = './Cr2Re2'
   prefix           = 'Cr2Re2_beef'
   pseudo_dir       = '../pseudo'
   tefield          = .true.
   dipfield         = .true.
/
&SYSTEM
   celldm(1)        = 1.889726
   ecutwfc          = 55.123963237125
   ecutrho          = 551.23963237125
   nosym            = .true.
   occupations      = 'smearing'
   degauss          = 0.01D0
   smearing         = 'fd'
   input_dft        = 'BEEF-vdW'
   edir             = 3
   emaxpos          = 0.95
   eopreg           = 0.05
   eamp             = 0.01
   ntyp             = 2
   nat              = 12
   ibrav            = 0
/
&ELECTRONS
   electron_maxstep = 500
   conv_thr         = 1e-05
   mixing_mode      = 'plain'
   mixing_beta      = 0.1
   mixing_ndim      = 10
/
&IONS
/
&CELL
/

ATOMIC_SPECIES
Cr 51.9961 Cr.pbe-spn-rrkjus_psl.1.0.0.UPF
Re 186.207 Re.pbe-spn-rrkjus_psl.1.0.0.UPF

K_POINTS automatic
12 12 1  0 0 0

CELL_PARAMETERS alat
5.17394800000000 0.00000000000000 0.00000000000000
1.72162000000000 4.87911500000000 0.00000000000000
0.00000000000000 0.00000000000000 24.22358000000000

ATOMIC_POSITIONS alat
Cr 0.0000000000 0.0000000000 10.0000000000 
Cr 3.4477841000 2.4395577000 10.0000000000 
Re 2.5869742000 0.0000000000 10.0000000000 
Re 0.8608099000 2.4395577000 10.0000000000 
Cr 5.1739484000 3.6609444000 12.1117899000 
Cr 1.7261644000 1.2213867000 12.1117899000 
Re 2.5869742000 3.6609444000 12.1117899000 
Re 4.3131386000 1.2213867000 12.1117899000 
Cr 3.4517230000 2.4423509000 14.1630745000 
Cr 0.0038840000 0.0027419000 14.1630849000 
Re 0.8644436000 2.4420199000 14.1344631000 
Re 2.5905481000 0.0026328000 14.1344404000 

