&CONTROL
   calculation      = 'scf'
   tstress          = .true.
   tprnfor          = .true.
   outdir           = './Cr2Y2'
   prefix           = 'Cr2Y2_beef'
   pseudo_dir       = '../pseudo'
   tefield          = .true.
   dipfield         = .true.
/
&SYSTEM
   celldm(1)        = 1.889726
   ecutwfc          = 55.123963237125
   ecutrho          = 551.23963237125
   nosym            = .true.
   occupations      = 'smearing'
   degauss          = 0.01D0
   smearing         = 'fd'
   input_dft        = 'BEEF-vdW'
   edir             = 3
   emaxpos          = 0.95
   eopreg           = 0.05
   eamp             = 0.01
   ntyp             = 2
   nat              = 12
   ibrav            = 0
/
&ELECTRONS
   electron_maxstep = 500
   conv_thr         = 1e-05
   mixing_mode      = 'plain'
   mixing_beta      = 0.1
   mixing_ndim      = 10
/
&IONS
/
&CELL
/

ATOMIC_SPECIES
Cr 51.9961 Cr.pbe-spn-rrkjus_psl.1.0.0.UPF
Y 88.90584 Y.pbe-spn-rrkjus_psl.1.0.0.UPF

K_POINTS automatic
12 12 1  0 0 0

CELL_PARAMETERS alat
5.96705800000000 0.00000000000000 0.00000000000000
1.88350300000000 5.66199500000000 0.00000000000000
0.00000000000000 0.00000000000000 24.83573100000000

ATOMIC_POSITIONS alat
Cr 0.0000000000 0.0000000000 10.0000000000 
Cr 3.9252803000 2.8309977000 10.0000000000 
Y 2.9835288000 0.0000000000 10.0000000000 
Y 0.9417515000 2.8309977000 10.0000000000 
Cr 5.9670575000 4.3035720000 12.4178654000 
Cr 2.0417772000 1.4725743000 12.4178654000 
Y 2.9835288000 4.3035720000 12.4178654000 
Y 5.0253060000 1.4725743000 12.4178654000 
Cr 5.9643190000 4.3018210000 14.1869062000 
Cr 2.0387049000 1.4701436000 14.1886759000 
Y 2.9711721000 4.2947552000 15.6365049000 
Y 5.0134722000 1.4639644000 15.6365107000 

