&CONTROL
   calculation      = 'scf'
   tstress          = .true.
   tprnfor          = .true.
   outdir           = './Cu2Nb2'
   prefix           = 'Cu2Nb2_beef'
   pseudo_dir       = '../pseudo'
   tefield          = .true.
   dipfield         = .true.
/
&SYSTEM
   celldm(1)        = 1.889726
   ecutwfc          = 55.123963237125
   ecutrho          = 551.23963237125
   nosym            = .true.
   occupations      = 'smearing'
   degauss          = 0.01D0
   smearing         = 'fd'
   input_dft        = 'BEEF-vdW'
   edir             = 3
   emaxpos          = 0.95
   eopreg           = 0.05
   eamp             = 0.01
   ntyp             = 2
   nat              = 12
   ibrav            = 0
/
&ELECTRONS
   electron_maxstep = 500
   conv_thr         = 1e-05
   mixing_mode      = 'plain'
   mixing_beta      = 0.1
   mixing_ndim      = 10
/
&IONS
/
&CELL
/

ATOMIC_SPECIES
Cu 63.546 Cu.pbe-dn-rrkjus_psl.1.0.0.UPF
Nb 92.90637 Nb.pbe-spn-rrkjus_psl.1.0.0.UPF

K_POINTS automatic
12 12 1  0 0 0

CELL_PARAMETERS alat
5.55154900000000 0.00000000000000 0.00000000000000
-2.77577500000000 4.82767800000000 0.00000000000000
0.00000000000000 0.00000000000000 24.54213200000000

ATOMIC_POSITIONS alat
Cu 0.0000000000 0.0000000000 10.0000000000 
Cu 2.7757745000 0.0000000000 10.0000000000 
Nb 1.3878873000 2.4138388000 10.0000000000 
Nb -1.3878873000 2.4138388000 10.0000000000 
Cu 2.7757745000 1.5959898000 12.2710660000 
Cu 0.0000000000 1.5959898000 12.2710660000 
Nb -1.3878873000 4.0098286000 12.2710660000 
Nb 1.3878873000 4.0098286000 12.2710660000 
Cu -0.0000102000 3.1777768000 14.5354038000 
Cu 2.7757904000 3.1777647000 14.5353980000 
Nb 4.1636597000 0.7803715000 14.4498051000 
Nb 1.3878871000 0.7803816000 14.4498034000 

