&CONTROL
   calculation      = 'scf'
   tstress          = .true.
   tprnfor          = .true.
   outdir           = './Cu2Rh2'
   prefix           = 'Cu2Rh2_beef'
   pseudo_dir       = '../pseudo'
   tefield          = .true.
   dipfield         = .true.
/
&SYSTEM
   celldm(1)        = 1.889726
   ecutwfc          = 55.123963237125
   ecutrho          = 551.23963237125
   nosym            = .true.
   occupations      = 'smearing'
   degauss          = 0.01D0
   smearing         = 'fd'
   input_dft        = 'BEEF-vdW'
   edir             = 3
   emaxpos          = 0.95
   eopreg           = 0.05
   eamp             = 0.01
   ntyp             = 2
   nat              = 12
   ibrav            = 0
/
&ELECTRONS
   electron_maxstep = 500
   conv_thr         = 1e-05
   mixing_mode      = 'plain'
   mixing_beta      = 0.1
   mixing_ndim      = 10
/
&IONS
/
&CELL
/

ATOMIC_SPECIES
Cu 63.546 Cu.pbe-dn-rrkjus_psl.1.0.0.UPF
Rh 102.9055 Rh.pbe-spn-rrkjus_psl.1.0.0.UPF

K_POINTS automatic
12 12 1  0 0 0

CELL_PARAMETERS alat
5.33183200000000 0.00000000000000 0.00000000000000
2.63039200000000 4.63783000000000 0.00000000000000
0.00000000000000 0.00000000000000 24.36273600000000

ATOMIC_POSITIONS alat
Cu 0.0000000000 0.0000000000 10.0000000000 
Cu 3.9811118000 2.3189150000 10.0000000000 
Rh 2.6659159000 0.0000000000 10.0000000000 
Rh 1.3151959000 2.3189150000 10.0000000000 
Cu 5.3318317000 3.1056814000 12.1813679000 
Cu 1.3507199000 0.7867663000 12.1813679000 
Rh 2.6659159000 3.1056814000 12.1813679000 
Rh 4.0166358000 0.7867663000 12.1813679000 
Cu 2.5856351000 1.5059427000 14.3653116000 
Cu 6.5666166000 3.8250822000 14.3653239000 
Rh 5.2629475000 1.5127206000 14.3450632000 
Rh 3.9121106000 3.8315687000 14.3450526000 

