&CONTROL
   calculation      = 'scf'
   tstress          = .true.
   tprnfor          = .true.
   outdir           = './Cu2Ta2'
   prefix           = 'Cu2Ta2_beef'
   pseudo_dir       = '../pseudo'
   tefield          = .true.
   dipfield         = .true.
/
&SYSTEM
   celldm(1)        = 1.889726
   ecutwfc          = 55.123963237125
   ecutrho          = 551.23963237125
   nosym            = .true.
   occupations      = 'smearing'
   degauss          = 0.01D0
   smearing         = 'fd'
   input_dft        = 'BEEF-vdW'
   edir             = 3
   emaxpos          = 0.95
   eopreg           = 0.05
   eamp             = 0.01
   ntyp             = 2
   nat              = 12
   ibrav            = 0
/
&ELECTRONS
   electron_maxstep = 500
   conv_thr         = 1e-05
   mixing_mode      = 'plain'
   mixing_beta      = 0.1
   mixing_ndim      = 10
/
&IONS
/
&CELL
/

ATOMIC_SPECIES
Cu 63.546 Cu.pbe-dn-rrkjus_psl.1.0.0.UPF
Ta 180.94788 Ta.pbe-spfn-rrkjus_psl.1.0.0.UPF

K_POINTS automatic
12 12 1  0 0 0

CELL_PARAMETERS alat
5.54064500000000 0.00000000000000 0.00000000000000
2.70349700000000 4.83630500000000 0.00000000000000
0.00000000000000 0.00000000000000 24.54089400000000

ATOMIC_POSITIONS alat
Cu 0.0000000000 0.0000000000 10.0000000000 
Cu 4.1220712000 2.4181527000 10.0000000000 
Ta 2.7703226000 0.0000000000 10.0000000000 
Ta 1.3517487000 2.4181527000 10.0000000000 
Cu 5.5406451000 3.2503383000 12.2704470000 
Cu 1.4185739000 0.8321856000 12.2704470000 
Ta 2.7703226000 3.2503383000 12.2704470000 
Ta 4.1888964000 0.8321856000 12.2704470000 
Cu 2.8194786000 1.6540090000 14.5470440000 
Cu 6.9415526000 4.0721593000 14.5470422000 
Ta 5.6028770000 1.6616756000 14.4500390000 
Ta 4.1843031000 4.0798287000 14.4500382000 

