&CONTROL
   calculation      = 'scf'
   tstress          = .true.
   tprnfor          = .true.
   outdir           = './Cu2Tc2'
   prefix           = 'Cu2Tc2_beef'
   pseudo_dir       = '../pseudo'
   tefield          = .true.
   dipfield         = .true.
/
&SYSTEM
   celldm(1)        = 1.889726
   ecutwfc          = 55.123963237125
   ecutrho          = 551.23963237125
   nosym            = .true.
   occupations      = 'smearing'
   degauss          = 0.01D0
   smearing         = 'fd'
   input_dft        = 'BEEF-vdW'
   edir             = 3
   emaxpos          = 0.95
   eopreg           = 0.05
   eamp             = 0.01
   ntyp             = 2
   nat              = 12
   ibrav            = 0
/
&ELECTRONS
   electron_maxstep = 500
   conv_thr         = 1e-05
   mixing_mode      = 'plain'
   mixing_beta      = 0.1
   mixing_ndim      = 10
/
&IONS
/
&CELL
/

ATOMIC_SPECIES
Cu 63.546 Cu.pbe-dn-rrkjus_psl.1.0.0.UPF
Tc 97.90721 Tc.pbe-spn-rrkjus_psl.0.3.0.UPF

K_POINTS automatic
12 12 1  0 0 0

CELL_PARAMETERS alat
5.08137400000000 0.00000000000000 0.00000000000000
-2.54068700000000 4.86898900000000 0.00000000000000
0.00000000000000 0.00000000000000 24.33472600000000

ATOMIC_POSITIONS alat
Cu 0.0000000000 0.0000000000 10.0000000000 
Cu 2.5406872000 0.0000000000 10.0000000000 
Tc 1.2703436000 2.4344945000 10.0000000000 
Tc -1.2703436000 2.4344945000 10.0000000000 
Cu 2.5406872000 1.3257560000 12.1673630000 
Cu 0.0000000000 1.3257560000 12.1673630000 
Tc -1.2703436000 3.7602506000 12.1673630000 
Tc 1.2703436000 3.7602506000 12.1673630000 
Cu -0.0000268000 2.6444423000 14.3572101000 
Cu 2.5406219000 2.6444530000 14.3572083000 
Tc 3.8109656000 0.2103034000 14.2858983000 
Tc 1.2702811000 0.2103397000 14.2859172000 

