&CONTROL
   calculation      = 'scf'
   tstress          = .true.
   tprnfor          = .true.
   outdir           = './Cu2W2'
   prefix           = 'Cu2W2_beef'
   pseudo_dir       = '../pseudo'
   tefield          = .true.
   dipfield         = .true.
/
&SYSTEM
   celldm(1)        = 1.889726
   ecutwfc          = 55.123963237125
   ecutrho          = 551.23963237125
   nosym            = .true.
   occupations      = 'smearing'
   degauss          = 0.01D0
   smearing         = 'fd'
   input_dft        = 'BEEF-vdW'
   edir             = 3
   emaxpos          = 0.95
   eopreg           = 0.05
   eamp             = 0.01
   ntyp             = 2
   nat              = 12
   ibrav            = 0
/
&ELECTRONS
   electron_maxstep = 500
   conv_thr         = 1e-05
   mixing_mode      = 'plain'
   mixing_beta      = 0.1
   mixing_ndim      = 10
/
&IONS
/
&CELL
/

ATOMIC_SPECIES
Cu 63.546 Cu.pbe-dn-rrkjus_psl.1.0.0.UPF
W 183.84 W.pbe-spn-rrkjus_psl.0.2.3.UPF

K_POINTS automatic
12 12 1  0 0 0

CELL_PARAMETERS alat
5.31273200000000 0.00000000000000 0.00000000000000
-2.65636600000000 4.81813400000000 0.00000000000000
0.00000000000000 0.00000000000000 24.43235600000000

ATOMIC_POSITIONS alat
Cu 0.0000000000 0.0000000000 10.0000000000 
Cu 2.6563662000 0.0000000000 10.0000000000 
W 1.3281831000 2.4090672000 10.0000000000 
W -1.3281831000 2.4090672000 10.0000000000 
Cu 2.6563662000 1.4645256000 12.2161782000 
Cu -0.0000000000 1.4645256000 12.2161782000 
W -1.3281831000 3.8735928000 12.2161782000 
W 1.3281831000 3.8735928000 12.2161782000 
Cu -0.0000020000 2.9180078000 14.4472329000 
Cu 2.6563647000 2.9180047000 14.4472315000 
W 3.9845511000 0.5211297000 14.3724458000 
W 1.3281807000 0.5211305000 14.3724444000 

