&CONTROL
   calculation      = 'scf'
   tstress          = .true.
   tprnfor          = .true.
   outdir           = './Cu2Y2'
   prefix           = 'Cu2Y2_beef'
   pseudo_dir       = '../pseudo'
   tefield          = .true.
   dipfield         = .true.
/
&SYSTEM
   celldm(1)        = 1.889726
   ecutwfc          = 55.123963237125
   ecutrho          = 551.23963237125
   nosym            = .true.
   occupations      = 'smearing'
   degauss          = 0.01D0
   smearing         = 'fd'
   input_dft        = 'BEEF-vdW'
   edir             = 3
   emaxpos          = 0.95
   eopreg           = 0.05
   eamp             = 0.01
   ntyp             = 2
   nat              = 12
   ibrav            = 0
/
&ELECTRONS
   electron_maxstep = 500
   conv_thr         = 1e-05
   mixing_mode      = 'plain'
   mixing_beta      = 0.1
   mixing_ndim      = 10
/
&IONS
/
&CELL
/

ATOMIC_SPECIES
Cu 63.546 Cu.pbe-dn-rrkjus_psl.1.0.0.UPF
Y 88.90584 Y.pbe-spn-rrkjus_psl.1.0.0.UPF

K_POINTS automatic
12 12 1  0 0 0

CELL_PARAMETERS alat
6.04850700000000 0.00000000000000 0.00000000000000
2.01630300000000 5.70254000000000 0.00000000000000
0.00000000000000 0.00000000000000 24.93862600000000

ATOMIC_POSITIONS alat
Cu 0.0000000000 0.0000000000 10.0000000000 
Cu 4.0324051000 2.8512699000 10.0000000000 
Y 3.0242535000 0.0000000000 10.0000000000 
Y 1.0081515000 2.8512699000 10.0000000000 
Cu 6.0485071000 4.2768338000 12.4693132000 
Cu 2.0161020000 1.4255639000 12.4693132000 
Y 3.0242535000 4.2768338000 12.4693132000 
Y 5.0403556000 1.4255639000 12.4693132000 
Cu 4.0322116000 2.8512163000 14.7558195000 
Cu 8.0646860000 5.7023881000 14.7558193000 
Y 7.0564863000 2.8511438000 14.9316346000 
Y 5.0404290000 5.7024596000 14.9316272000 

