&CONTROL
   calculation      = 'scf'
   tstress          = .true.
   tprnfor          = .true.
   outdir           = './Fe2Au2'
   prefix           = 'Fe2Au2_beef'
   pseudo_dir       = '../pseudo'
   tefield          = .true.
   dipfield         = .true.
/
&SYSTEM
   celldm(1)        = 1.889726
   ecutwfc          = 55.123963237125
   ecutrho          = 551.23963237125
   nosym            = .true.
   occupations      = 'smearing'
   degauss          = 0.01D0
   smearing         = 'fd'
   input_dft        = 'BEEF-vdW'
   edir             = 3
   emaxpos          = 0.95
   eopreg           = 0.05
   eamp             = 0.01
   nspin            = 2
   starting_magnetization(1) = 0.375
   starting_magnetization(2) = 0.0
   ntyp             = 2
   nat              = 12
   ibrav            = 0
/
&ELECTRONS
   electron_maxstep = 500
   conv_thr         = 1e-05
   mixing_mode      = 'plain'
   mixing_beta      = 0.1
   mixing_ndim      = 10
/
&IONS
/
&CELL
/

ATOMIC_SPECIES
Fe  55.845 Fe.pbe-n-rrkjus_psl.1.0.0.UPF
Au  196.966569 Au.pbe-n-rrkjus_psl.1.0.0.UPF

K_POINTS automatic
12 12 1  0 0 0

CELL_PARAMETERS alat
5.58550400000000 0.00000000000000 0.00000000000000
2.72803700000000 4.87397900000000 0.00000000000000
0.00000000000000 0.00000000000000 24.57703100000000

ATOMIC_POSITIONS alat
Fe  0.0000000000 0.0000000000 10.0000000000
Fe  4.1567707000 2.4369893000 10.0000000000
Au  2.7927520000 0.0000000000 10.0000000000
Au  1.3640187000 2.4369893000 10.0000000000
Fe  5.5855040000 3.2746125000 12.2885157000
Fe  1.4287333000 0.8376232000 12.2885157000
Au  2.7927520000 3.2746125000 12.2885157000
Au  4.2214853000 0.8376232000 12.2885157000
Fe  2.7481861000 1.6111770000 14.4247941000
Fe  6.9053005000 4.0483700000 14.4253408000
Au  5.6193296000 1.6573111000 14.6689417000
Au  4.1907475000 4.0940379000 14.6689464000

