&CONTROL
   calculation      = 'scf'
   tstress          = .true.
   tprnfor          = .true.
   outdir           = './Fe2Ag2'
   prefix           = 'Fe2Ag2_beef'
   pseudo_dir       = '../pseudo'
   tefield          = .true.
   dipfield         = .true.
/
&SYSTEM
   celldm(1)        = 1.889726
   ecutwfc          = 55.123963237125
   ecutrho          = 551.23963237125
   nosym            = .true.
   occupations      = 'smearing'
   degauss          = 0.01D0
   smearing         = 'fd'
   input_dft        = 'BEEF-vdW'
   edir             = 3
   emaxpos          = 0.95
   eopreg           = 0.05
   eamp             = 0.01
   nspin            = 2
   starting_magnetization(1) = 0.375
   starting_magnetization(2) = 0.0
   ntyp             = 2
   nat              = 12
   ibrav            = 0
/
&ELECTRONS
   electron_maxstep = 500
   conv_thr         = 1e-05
   mixing_mode      = 'plain'
   mixing_beta      = 0.1
   mixing_ndim      = 10
/
&IONS
/
&CELL
/

ATOMIC_SPECIES
Fe  55.845 Fe.pbe-n-rrkjus_psl.1.0.0.UPF
Ag  107.8682 Ag.pbe-n-rrkjus_psl.1.0.0.UPF

K_POINTS automatic
12 12 1  0 0 0

CELL_PARAMETERS alat
5.50443500000000 0.00000000000000 0.00000000000000
-2.75221700000000 4.95022100000000 0.00000000000000
0.00000000000000 0.00000000000000 24.57526700000000

ATOMIC_POSITIONS alat
Fe  0.0000000000 0.0000000000 10.0000000000
Fe  2.7522174000 0.0000000000 10.0000000000
Ag  1.3761087000 2.4751104000 10.0000000000
Ag  -1.3761087000 2.4751104000 10.0000000000
Fe  2.7522174000 1.5301742000 12.2876336000
Fe  0.0000000000 1.5301742000 12.2876336000
Ag  -1.3761087000 4.0052847000 12.2876336000
Ag  1.3761087000 4.0052847000 12.2876336000
Fe  0.0001035000 2.8751519000 14.3742521000
Fe  2.7523222000 2.8751015000 14.3742135000
Ag  4.1283073000 0.4868724000 14.7083508000
Ag  1.3762755000 0.4868699000 14.7083502000

