&CONTROL
   calculation      = 'scf'
   tstress          = .true.
   tprnfor          = .true.
   outdir           = './Fe2Cu2'
   prefix           = 'Fe2Cu2_beef'
   pseudo_dir       = '../pseudo'
   tefield          = .true.
   dipfield         = .true.
/
&SYSTEM
   celldm(1)        = 1.889726
   ecutwfc          = 55.123963237125
   ecutrho          = 551.23963237125
   nosym            = .true.
   occupations      = 'smearing'
   degauss          = 0.01D0
   smearing         = 'fd'
   input_dft        = 'BEEF-vdW'
   edir             = 3
   emaxpos          = 0.95
   eopreg           = 0.05
   eamp             = 0.01
   nspin            = 2
   starting_magnetization(1) = 0.375
   starting_magnetization(2) = 0.0
   ntyp             = 2
   nat              = 12
   ibrav            = 0
/
&ELECTRONS
   electron_maxstep = 500
   conv_thr         = 1e-05
   mixing_mode      = 'plain'
   mixing_beta      = 0.1
   mixing_ndim      = 10
/
&IONS
/
&CELL
/

ATOMIC_SPECIES
Fe  55.845 Fe.pbe-n-rrkjus_psl.1.0.0.UPF
Cu  63.546 Cu.pbe-dn-rrkjus_psl.1.0.0.UPF

K_POINTS automatic
12 12 1  0 0 0

CELL_PARAMETERS alat
5.09062200000000 0.00000000000000 0.00000000000000
-2.54531100000000 4.53683300000000 0.00000000000000
0.00000000000000 0.00000000000000 24.21398500000000

ATOMIC_POSITIONS alat
Fe  0.0000000000 0.0000000000 10.0000000000
Fe  2.5453111000 0.0000000000 10.0000000000
Cu  1.2726556000 2.2684167000 10.0000000000
Cu  -1.2726556000 2.2684167000 10.0000000000
Fe  2.5453111000 1.4280024000 12.1069926000
Fe  -0.0000000000 1.4280024000 12.1069926000
Cu  -1.2726556000 3.6964190000 12.1069926000
Cu  1.2726556000 3.6964190000 12.1069926000
Fe  -0.0000004000 2.8417706000 14.1587755000
Fe  2.5453109000 2.8417282000 14.1588227000
Cu  3.8180905000 0.5884399000 14.2398955000
Cu  1.2725312000 0.5884407000 14.2398958000

