&CONTROL
   calculation      = 'scf'
   tstress          = .true.
   tprnfor          = .true.
   outdir           = './Fe2Hg2'
   prefix           = 'Fe2Hg2_beef'
   pseudo_dir       = '../pseudo'
   tefield          = .true.
   dipfield         = .true.
/
&SYSTEM
   celldm(1)        = 1.889726
   ecutwfc          = 55.123963237125
   ecutrho          = 551.23963237125
   nosym            = .true.
   occupations      = 'smearing'
   degauss          = 0.01D0
   smearing         = 'fd'
   input_dft        = 'BEEF-vdW'
   edir             = 3
   emaxpos          = 0.95
   eopreg           = 0.05
   eamp             = 0.01
   nspin            = 2
   starting_magnetization(1) = 0.375
   starting_magnetization(2) = 0.0
   ntyp             = 2
   nat              = 12
   ibrav            = 0
/
&ELECTRONS
   electron_maxstep = 500
   conv_thr         = 1e-05
   mixing_mode      = 'plain'
   mixing_beta      = 0.1
   mixing_ndim      = 10
/
&IONS
/
&CELL
/

ATOMIC_SPECIES
Fe  55.845 Fe.pbe-n-rrkjus_psl.1.0.0.UPF
Hg  200.592 Hg.pbe-n-rrkjus_psl.1.0.0.UPF

K_POINTS automatic
12 12 1  0 0 0

CELL_PARAMETERS alat
5.76904800000000 0.00000000000000 0.00000000000000
2.77980400000000 5.05515600000000 0.00000000000000
0.00000000000000 0.00000000000000 24.73604600000000

ATOMIC_POSITIONS alat
Fe  0.0000000000 0.0000000000 10.0000000000
Fe  4.2744257000 2.5275779000 10.0000000000
Hg  2.8845238000 0.0000000000 10.0000000000
Hg  1.3899019000 2.5275779000 10.0000000000
Fe  5.7690476000 3.4113863000 12.3680230000
Fe  1.4946219000 0.8838084000 12.3680230000
Hg  2.8845238000 3.4113863000 12.3680230000
Hg  4.3791457000 0.8838084000 12.3680230000
Fe  2.5485612000 1.5070168000 14.4977192000
Fe  6.8229179000 4.0345836000 14.4976515000
Hg  5.5144456000 1.5551288000 15.2426841000
Hg  4.0198026000 4.0827208000 15.2426845000

