&CONTROL
   calculation      = 'scf'
   tstress          = .true.
   tprnfor          = .true.
   outdir           = './Fe2Hf2'
   prefix           = 'Fe2Hf2_beef'
   pseudo_dir       = '../pseudo'
   tefield          = .true.
   dipfield         = .true.
/
&SYSTEM
   celldm(1)        = 1.889726
   ecutwfc          = 55.123963237125
   ecutrho          = 551.23963237125
   nosym            = .true.
   occupations      = 'smearing'
   degauss          = 0.01D0
   smearing         = 'fd'
   input_dft        = 'BEEF-vdW'
   edir             = 3
   emaxpos          = 0.95
   eopreg           = 0.05
   eamp             = 0.01
   nspin            = 2
   starting_magnetization(1) = 0.375
   starting_magnetization(2) = 0.0
   ntyp             = 2
   nat              = 12
   ibrav            = 0
/
&ELECTRONS
   electron_maxstep = 500
   conv_thr         = 1e-05
   mixing_mode      = 'plain'
   mixing_beta      = 0.1
   mixing_ndim      = 10
/
&IONS
/
&CELL
/

ATOMIC_SPECIES
Fe  55.845 Fe.pbe-n-rrkjus_psl.1.0.0.UPF
Hf  178.49 Hf.pbe-spn-rrkjus_psl.1.0.0.UPF

K_POINTS automatic
12 12 1  0 0 0

CELL_PARAMETERS alat
5.43826400000000 0.00000000000000 0.00000000000000
1.81712400000000 5.12569800000000 0.00000000000000
0.00000000000000 0.00000000000000 24.44165400000000

ATOMIC_POSITIONS alat
Fe  0.0000000000 0.0000000000 10.0000000000
Fe  3.6276939000 2.5628488000 10.0000000000
Hf  2.7191320000 0.0000000000 10.0000000000
Hf  0.9085619000 2.5628488000 10.0000000000
Fe  5.4382640000 3.8419583000 12.2208272000
Fe  1.8105701000 1.2791094000 12.2208272000
Hf  2.7191320000 3.8419583000 12.2208272000
Hf  4.5297021000 1.2791094000 12.2208272000
Fe  3.6220964000 2.5588955000 14.3217126000
Fe  7.2497351000 5.1217027000 14.3216964000
Hf  6.3424439000 2.5596788000 14.4765413000
Hf  4.5318038000 5.1226270000 14.4765404000

