&CONTROL
   calculation      = 'scf'
   tstress          = .true.
   tprnfor          = .true.
   outdir           = './Fe2Ni2'
   prefix           = 'Fe2Ni2_beef'
   pseudo_dir       = '../pseudo'
   tefield          = .true.
   dipfield         = .true.
/
&SYSTEM
   celldm(1)        = 1.889726
   ecutwfc          = 55.123963237125
   ecutrho          = 551.23963237125
   nosym            = .true.
   occupations      = 'smearing'
   degauss          = 0.01D0
   smearing         = 'fd'
   input_dft        = 'BEEF-vdW'
   edir             = 3
   emaxpos          = 0.95
   eopreg           = 0.05
   eamp             = 0.01
   nspin            = 2
   starting_magnetization(1) = 0.375
   starting_magnetization(2) = 0.5
   ntyp             = 2
   nat              = 12
   ibrav            = 0
/
&ELECTRONS
   electron_maxstep = 500
   conv_thr         = 1e-05
   mixing_mode      = 'plain'
   mixing_beta      = 0.1
   mixing_ndim      = 10
/
&IONS
/
&CELL
/

ATOMIC_SPECIES
Fe  55.845 Fe.pbe-n-rrkjus_psl.1.0.0.UPF
Ni  58.6934 Ni.pbe-n-rrkjus_psl.1.0.0.UPF

K_POINTS automatic
12 12 1  0 0 0

CELL_PARAMETERS alat
5.05226600000000 0.00000000000000 0.00000000000000
-2.52613300000000 4.39685500000000 0.00000000000000
0.00000000000000 0.00000000000000 24.13519000000000

ATOMIC_POSITIONS alat
Fe  0.0000000000 0.0000000000 10.0000000000
Fe  2.5261330000 0.0000000000 10.0000000000
Ni  1.2630665000 2.1984273000 10.0000000000
Ni  -1.2630665000 2.1984273000 10.0000000000
Fe  2.5261330000 1.4513438000 12.0675950000
Fe  0.0000000000 1.4513438000 12.0675950000
Ni  -1.2630665000 3.6497711000 12.0675950000
Ni  1.2630665000 3.6497711000 12.0675950000
Fe  0.0000056000 2.9170830000 14.1180667000
Fe  2.5261272000 2.9172792000 14.1179166000
Ni  3.7894338000 0.7193543000 14.1064247000
Ni  1.2628339000 0.7193453000 14.1064078000

