&CONTROL
   calculation      = 'scf'
   tstress          = .true.
   tprnfor          = .true.
   outdir           = './Fe2Pt2'
   prefix           = 'Fe2Pt2_beef'
   pseudo_dir       = '../pseudo'
   tefield          = .true.
   dipfield         = .true.
/
&SYSTEM
   celldm(1)        = 1.889726
   ecutwfc          = 55.123963237125
   ecutrho          = 551.23963237125
   nosym            = .true.
   occupations      = 'smearing'
   degauss          = 0.01D0
   smearing         = 'fd'
   input_dft        = 'BEEF-vdW'
   edir             = 3
   emaxpos          = 0.95
   eopreg           = 0.05
   eamp             = 0.01
   nspin            = 2
   starting_magnetization(1) = 0.375
   starting_magnetization(2) = 0.0
   ntyp             = 2
   nat              = 12
   ibrav            = 0
/
&ELECTRONS
   electron_maxstep = 500
   conv_thr         = 1e-05
   mixing_mode      = 'plain'
   mixing_beta      = 0.1
   mixing_ndim      = 10
/
&IONS
/
&CELL
/

ATOMIC_SPECIES
Fe  55.845 Fe.pbe-n-rrkjus_psl.1.0.0.UPF
Pt  195.084 Pt.pbe-n-rrkjus_psl.1.0.0.UPF

K_POINTS automatic
12 12 1  0 0 0

CELL_PARAMETERS alat
5.41459800000000 0.00000000000000 0.00000000000000
2.63150600000000 4.73212900000000 0.00000000000000
0.00000000000000 0.00000000000000 24.44003300000000

ATOMIC_POSITIONS alat
Fe  0.0000000000 0.0000000000 10.0000000000
Fe  4.0230520000 2.3660644000 10.0000000000
Pt  2.7072989000 0.0000000000 10.0000000000
Pt  1.3157532000 2.3660644000 10.0000000000
Fe  5.4145977000 3.1844696000 12.2200166000
Fe  1.3915457000 0.8184052000 12.2200166000
Pt  2.7072989000 3.1844696000 12.2200166000
Pt  4.0988446000 0.8184052000 12.2200166000
Fe  2.8263809000 1.6622696000 14.3975386000
Fe  6.8497340000 4.0285112000 14.3980217000
Pt  5.5785259000 1.6889731000 14.4187890000
Pt  4.1872665000 4.0545516000 14.4187901000

