&CONTROL
   calculation      = 'scf'
   tstress          = .true.
   tprnfor          = .true.
   outdir           = './Hf2Au2'
   prefix           = 'Hf2Au2_beef'
   pseudo_dir       = '../pseudo'
   tefield          = .true.
   dipfield         = .true.
/
&SYSTEM
   celldm(1)        = 1.889726
   ecutwfc          = 55.123963237125
   ecutrho          = 551.23963237125
   nosym            = .true.
   occupations      = 'smearing'
   degauss          = 0.01D0
   smearing         = 'fd'
   input_dft        = 'BEEF-vdW'
   edir             = 3
   emaxpos          = 0.95
   eopreg           = 0.05
   eamp             = 0.01
   ntyp             = 2
   nat              = 12
   ibrav            = 0
/
&ELECTRONS
   electron_maxstep = 500
   conv_thr         = 1e-05
   mixing_mode      = 'plain'
   mixing_beta      = 0.1
   mixing_ndim      = 10
/
&IONS
/
&CELL
/

ATOMIC_SPECIES
Hf 178.49 Hf.pbe-spn-rrkjus_psl.1.0.0.UPF
Au 196.966569 Au.pbe-n-rrkjus_psl.1.0.0.UPF

K_POINTS automatic
12 12 1  0 0 0

CELL_PARAMETERS alat
5.95107700000000 0.00000000000000 0.00000000000000
2.62343200000000 5.34162200000000 0.00000000000000
0.00000000000000 0.00000000000000 24.92296300000000

ATOMIC_POSITIONS alat
Hf 0.0000000000 0.0000000000 10.0000000000 
Hf 4.2872545000 2.6708108000 10.0000000000 
Au 2.9755385000 0.0000000000 10.0000000000 
Au 1.3117160000 2.6708108000 10.0000000000 
Hf 5.9510770000 3.7073145000 12.4614814000 
Hf 1.6638225000 1.0365037000 12.4614814000 
Au 2.9755385000 3.7073145000 12.4614814000 
Au 4.6393610000 1.0365037000 12.4614814000 
Hf 3.3279049000 2.0731709000 14.8354604000 
Hf 7.6151648000 4.7439865000 14.8354674000 
Au 6.3137704000 2.0796150000 14.9200174000 
Au 4.6499533000 4.7504177000 14.9199520000 

