&CONTROL
   calculation      = 'scf'
   tstress          = .true.
   tprnfor          = .true.
   outdir           = './Hf2Hg2'
   prefix           = 'Hf2Hg2_beef'
   pseudo_dir       = '../pseudo'
   tefield          = .true.
   dipfield         = .true.
/
&SYSTEM
   celldm(1)        = 1.889726
   ecutwfc          = 55.123963237125
   ecutrho          = 551.23963237125
   nosym            = .true.
   occupations      = 'smearing'
   degauss          = 0.01D0
   smearing         = 'fd'
   input_dft        = 'BEEF-vdW'
   edir             = 3
   emaxpos          = 0.95
   eopreg           = 0.05
   eamp             = 0.01
   ntyp             = 2
   nat              = 12
   ibrav            = 0
/
&ELECTRONS
   electron_maxstep = 500
   conv_thr         = 1e-05
   mixing_mode      = 'plain'
   mixing_beta      = 0.1
   mixing_ndim      = 10
/
&IONS
/
&CELL
/

ATOMIC_SPECIES
Hf 178.49 Hf.pbe-spn-rrkjus_psl.1.0.0.UPF
Hg 200.592 Hg.pbe-n-rrkjus_psl.1.0.0.UPF

K_POINTS automatic
12 12 1  0 0 0

CELL_PARAMETERS alat
6.22633300000000 0.00000000000000 0.00000000000000
3.09215100000000 5.40424100000000 0.00000000000000
0.00000000000000 0.00000000000000 25.08939300000000

ATOMIC_POSITIONS alat
Hf 0.0000000000 0.0000000000 10.0000000000 
Hf 4.6592419000 2.7021207000 10.0000000000 
Hg 3.1131665000 0.0000000000 10.0000000000 
Hg 1.5460754000 2.7021207000 10.0000000000 
Hf 6.2263330000 3.6109530000 12.5446965000 
Hf 1.5670911000 0.9088323000 12.5446965000 
Hg 3.1131665000 3.6109530000 12.5446965000 
Hg 4.6802576000 0.9088323000 12.5446965000 
Hf 3.1393268000 1.8206523000 14.9923247000 
Hf 7.7985380000 4.5227495000 14.9923217000 
Hg 6.2586032000 1.8241956000 15.2785824000 
Hg 4.6915222000 4.5263116000 15.2785701000 

