&CONTROL
   calculation      = 'scf'
   tstress          = .true.
   tprnfor          = .true.
   outdir           = './Hf2Ir2'
   prefix           = 'Hf2Ir2_beef'
   pseudo_dir       = '../pseudo'
   tefield          = .true.
   dipfield         = .true.
/
&SYSTEM
   celldm(1)        = 1.889726
   ecutwfc          = 55.123963237125
   ecutrho          = 551.23963237125
   nosym            = .true.
   occupations      = 'smearing'
   degauss          = 0.01D0
   smearing         = 'fd'
   input_dft        = 'BEEF-vdW'
   edir             = 3
   emaxpos          = 0.95
   eopreg           = 0.05
   eamp             = 0.01
   ntyp             = 2
   nat              = 12
   ibrav            = 0
/
&ELECTRONS
   electron_maxstep = 500
   conv_thr         = 1e-05
   mixing_mode      = 'plain'
   mixing_beta      = 0.1
   mixing_ndim      = 10
/
&IONS
/
&CELL
/

ATOMIC_SPECIES
Hf 178.49 Hf.pbe-spn-rrkjus_psl.1.0.0.UPF
Ir 192.217 Ir.pbe-n-rrkjus_psl.0.2.3.UPF

K_POINTS automatic
12 12 1  0 0 0

CELL_PARAMETERS alat
5.70231100000000 0.00000000000000 0.00000000000000
2.32192700000000 5.20816700000000 0.00000000000000
0.00000000000000 0.00000000000000 24.72346600000000

ATOMIC_POSITIONS alat
Hf 0.0000000000 0.0000000000 10.0000000000 
Hf 4.0121187000 2.6040836000 10.0000000000 
Ir 2.8511554000 0.0000000000 10.0000000000 
Ir 1.1609633000 2.6040836000 10.0000000000 
Hf 5.7023109000 3.7011104000 12.3617332000 
Hf 1.6901922000 1.0970268000 12.3617332000 
Ir 2.8511554000 3.7011104000 12.3617332000 
Ir 4.5413476000 1.0970268000 12.3617332000 
Hf 3.6975521000 2.3999099000 14.7289022000 
Hf 7.7096700000 5.0040015000 14.7289021000 
Ir 6.5561963000 2.4047697000 14.5305372000 
Ir 4.8660059000 5.0088602000 14.5305366000 

