&CONTROL
   calculation      = 'scf'
   tstress          = .true.
   tprnfor          = .true.
   outdir           = './Hf2Y2'
   prefix           = 'Hf2Y2_beef'
   pseudo_dir       = '../pseudo'
   tefield          = .true.
   dipfield         = .true.
/
&SYSTEM
   celldm(1)        = 1.889726
   ecutwfc          = 55.123963237125
   ecutrho          = 551.23963237125
   nosym            = .true.
   occupations      = 'smearing'
   degauss          = 0.01D0
   smearing         = 'fd'
   input_dft        = 'BEEF-vdW'
   edir             = 3
   emaxpos          = 0.95
   eopreg           = 0.05
   eamp             = 0.01
   ntyp             = 2
   nat              = 12
   ibrav            = 0
/
&ELECTRONS
   electron_maxstep = 500
   conv_thr         = 1e-05
   mixing_mode      = 'plain'
   mixing_beta      = 0.1
   mixing_ndim      = 10
/
&IONS
/
&CELL
/

ATOMIC_SPECIES
Hf 178.49 Hf.pbe-spn-rrkjus_psl.1.0.0.UPF
Y 88.90584 Y.pbe-spn-rrkjus_psl.1.0.0.UPF

K_POINTS automatic
12 12 1  0 0 0

CELL_PARAMETERS alat
6.55038000000000 0.00000000000000 0.00000000000000
-3.27519000000000 5.92417600000000 0.00000000000000
0.00000000000000 0.00000000000000 25.45829900000000

ATOMIC_POSITIONS alat
Hf 0.0000000000 0.0000000000 10.0000000000 
Hf -0.0000000000 5.9241758000 10.0000000000 
Y 1.6375951000 2.9620879000 10.0000000000 
Y -1.6375951000 2.9620879000 10.0000000000 
Hf 3.2751901000 1.8106941000 12.7291495000 
Hf -0.0000000000 1.8106941000 12.7291495000 
Y -1.6375951000 4.7727820000 12.7291495000 
Y 1.6375951000 4.7727820000 12.7291495000 
Hf -0.0005492000 3.5756722000 15.2108137000 
Hf 3.2757403000 3.5757836000 15.2108680000 
Y 4.9128560000 0.7375677000 15.4977241000 
Y 1.6374921000 0.7377543000 15.4976744000 

