&CONTROL
   calculation      = 'scf'
   tstress          = .true.
   tprnfor          = .true.
   outdir           = './Ir2Hg2'
   prefix           = 'Ir2Hg2_beef'
   pseudo_dir       = '../pseudo'
   tefield          = .true.
   dipfield         = .true.
/
&SYSTEM
   celldm(1)        = 1.889726
   ecutwfc          = 55.123963237125
   ecutrho          = 551.23963237125
   nosym            = .true.
   occupations      = 'smearing'
   degauss          = 0.01D0
   smearing         = 'fd'
   input_dft        = 'BEEF-vdW'
   edir             = 3
   emaxpos          = 0.95
   eopreg           = 0.05
   eamp             = 0.01
   ntyp             = 2
   nat              = 12
   ibrav            = 0
/
&ELECTRONS
   electron_maxstep = 500
   conv_thr         = 1e-05
   mixing_mode      = 'plain'
   mixing_beta      = 0.1
   mixing_ndim      = 10
/
&IONS
/
&CELL
/

ATOMIC_SPECIES
Ir 192.217 Ir.pbe-n-rrkjus_psl.0.2.3.UPF
Hg 200.592 Hg.pbe-n-rrkjus_psl.1.0.0.UPF

K_POINTS automatic
12 12 1  0 0 0

CELL_PARAMETERS alat
5.82474200000000 0.00000000000000 0.00000000000000
2.76516300000000 5.12654800000000 0.00000000000000
0.00000000000000 0.00000000000000 24.79032900000000

ATOMIC_POSITIONS alat
Ir 0.0000000000 0.0000000000 10.0000000000 
Ir 4.2949522000 2.5632739000 10.0000000000 
Hg 2.9123709000 0.0000000000 10.0000000000 
Hg 1.3825813000 2.5632739000 10.0000000000 
Ir 5.8247418000 3.4762689000 12.3951646000 
Ir 1.5297896000 0.9129950000 12.3951646000 
Hg 2.9123709000 3.4762689000 12.3951646000 
Hg 4.4421605000 0.9129950000 12.3951646000 
Ir 2.5116723000 1.4990231000 14.6026025000 
Ir 6.8066510000 4.0622636000 14.6025675000 
Hg 5.4850499000 1.5354260000 15.2662577000 
Hg 3.9552876000 4.0986952000 15.2662385000 

