&CONTROL
   calculation      = 'scf'
   tstress          = .true.
   tprnfor          = .true.
   outdir           = './La2Nb2'
   prefix           = 'La2Nb2_beef'
   pseudo_dir       = '../pseudo'
   tefield          = .true.
   dipfield         = .true.
/
&SYSTEM
   celldm(1)        = 1.889726
   ecutwfc          = 55.123963237125
   ecutrho          = 551.23963237125
   nosym            = .true.
   occupations      = 'smearing'
   degauss          = 0.01D0
   smearing         = 'fd'
   input_dft        = 'BEEF-vdW'
   edir             = 3
   emaxpos          = 0.95
   eopreg           = 0.05
   eamp             = 0.01
   ntyp             = 2
   nat              = 12
   ibrav            = 0
/
&ELECTRONS
   electron_maxstep = 500
   conv_thr         = 1e-05
   mixing_mode      = 'plain'
   mixing_beta      = 0.1
   mixing_ndim      = 10
/
&IONS
/
&CELL
/

ATOMIC_SPECIES
La 138.90547 La.pbe-spfn-rrkjus_psl.1.0.0.UPF
Nb 92.90637 Nb.pbe-spn-rrkjus_psl.1.0.0.UPF

K_POINTS automatic
12 12 1  0 0 0

CELL_PARAMETERS alat
6.22748300000000 0.00000000000000 0.00000000000000
-3.11374100000000 6.06976300000000 0.00000000000000
0.00000000000000 0.00000000000000 25.34562900000000

ATOMIC_POSITIONS alat
La 0.0000000000 0.0000000000 10.0000000000 
La 3.1137413000 0.0000000000 10.0000000000 
Nb 1.5568706000 3.0348814000 10.0000000000 
Nb 4.6706119000 3.0348814000 10.0000000000 
La 3.1137413000 1.5973252000 12.6728145000 
La 0.0000000000 1.5973252000 12.6728145000 
Nb -1.5568706000 4.6322066000 12.6728145000 
Nb 1.5568706000 4.6322066000 12.6728145000 
La 0.0001014000 3.2976251000 15.5980344000 
La 3.1138449000 3.2976352000 15.5980446000 
Nb 1.5563845000 5.9944858000 14.9759285000 
Nb -1.5573933000 5.9944868000 14.9759226000 

