&CONTROL
   calculation      = 'scf'
   tstress          = .true.
   tprnfor          = .true.
   outdir           = './La2Os2'
   prefix           = 'La2Os2_beef'
   pseudo_dir       = '../pseudo'
   tefield          = .true.
   dipfield         = .true.
/
&SYSTEM
   celldm(1)        = 1.889726
   ecutwfc          = 55.123963237125
   ecutrho          = 551.23963237125
   nosym            = .true.
   occupations      = 'smearing'
   degauss          = 0.01D0
   smearing         = 'fd'
   input_dft        = 'BEEF-vdW'
   edir             = 3
   emaxpos          = 0.95
   eopreg           = 0.05
   eamp             = 0.01
   ntyp             = 2
   nat              = 12
   ibrav            = 0
/
&ELECTRONS
   electron_maxstep = 500
   conv_thr         = 1e-05
   mixing_mode      = 'plain'
   mixing_beta      = 0.1
   mixing_ndim      = 10
/
&IONS
/
&CELL
/

ATOMIC_SPECIES
La 138.90547 La.pbe-spfn-rrkjus_psl.1.0.0.UPF
Os 190.23 Os.pbe-spn-rrkjus_psl.1.0.0.UPF

K_POINTS automatic
12 12 1  0 0 0

CELL_PARAMETERS alat
6.23066400000000 0.00000000000000 0.00000000000000
2.06796300000000 5.87747400000000 0.00000000000000
0.00000000000000 0.00000000000000 25.08455600000000

ATOMIC_POSITIONS alat
La 0.0000000000 0.0000000000 10.0000000000 
La 4.1493136000 2.9387369000 10.0000000000 
Os 3.1153319000 0.0000000000 10.0000000000 
Os 1.0339817000 2.9387369000 10.0000000000 
La 6.2306637000 4.4128459000 12.5422779000 
La 2.0813502000 1.4741090000 12.5422779000 
Os 3.1153319000 4.4128459000 12.5422779000 
Os 5.1966820000 1.4741090000 12.5422779000 
La 4.1546707000 2.9425358000 15.1602993000 
La 0.0053773000 0.0038163000 15.1603190000 
Os 1.0608652000 2.9577174000 14.7992593000 
Os 3.1422201000 0.0190541000 14.7993234000 

