&CONTROL
   calculation      = 'scf'
   tstress          = .true.
   tprnfor          = .true.
   outdir           = './La2Ru2'
   prefix           = 'La2Ru2_beef'
   pseudo_dir       = '../pseudo'
   tefield          = .true.
   dipfield         = .true.
/
&SYSTEM
   celldm(1)        = 1.889726
   ecutwfc          = 55.123963237125
   ecutrho          = 551.23963237125
   nosym            = .true.
   occupations      = 'smearing'
   degauss          = 0.01D0
   smearing         = 'fd'
   input_dft        = 'BEEF-vdW'
   edir             = 3
   emaxpos          = 0.95
   eopreg           = 0.05
   eamp             = 0.01
   ntyp             = 2
   nat              = 12
   ibrav            = 0
/
&ELECTRONS
   electron_maxstep = 500
   conv_thr         = 1e-05
   mixing_mode      = 'plain'
   mixing_beta      = 0.1
   mixing_ndim      = 10
/
&IONS
/
&CELL
/

ATOMIC_SPECIES
La 138.90547 La.pbe-spfn-rrkjus_psl.1.0.0.UPF
Ru 101.07 Ru.pbe-spn-rrkjus_psl.1.0.0.UPF

K_POINTS automatic
12 12 1  0 0 0

CELL_PARAMETERS alat
6.21070900000000 0.00000000000000 0.00000000000000
2.06165200000000 5.85854000000000 0.00000000000000
0.00000000000000 0.00000000000000 25.06836900000000

ATOMIC_POSITIONS alat
La 0.0000000000 0.0000000000 10.0000000000 
La 4.1361803000 2.9292701000 10.0000000000 
Ru 3.1053544000 0.0000000000 10.0000000000 
Ru 1.0308260000 2.9292701000 10.0000000000 
La 6.2107087000 4.3984648000 12.5341844000 
La 2.0745284000 1.4691947000 12.5341844000 
Ru 3.1053544000 4.3984648000 12.5341844000 
Ru 5.1798828000 1.4691947000 12.5341844000 
La 4.1387612000 2.9311105000 15.1046256000 
La 0.0026035000 0.0018302000 15.1046269000 
Ru 1.0518443000 2.9441479000 14.6774673000 
Ru 3.1264277000 0.0149241000 14.6775731000 

