&CONTROL
   calculation      = 'scf'
   tstress          = .true.
   tprnfor          = .true.
   outdir           = './La2Y2'
   prefix           = 'La2Y2_beef'
   pseudo_dir       = '../pseudo'
   tefield          = .true.
   dipfield         = .true.
/
&SYSTEM
   celldm(1)        = 1.889726
   ecutwfc          = 55.123963237125
   ecutrho          = 551.23963237125
   nosym            = .true.
   occupations      = 'smearing'
   degauss          = 0.01D0
   smearing         = 'fd'
   input_dft        = 'BEEF-vdW'
   edir             = 3
   emaxpos          = 0.95
   eopreg           = 0.05
   eamp             = 0.01
   ntyp             = 2
   nat              = 12
   ibrav            = 0
/
&ELECTRONS
   electron_maxstep = 500
   conv_thr         = 1e-05
   mixing_mode      = 'plain'
   mixing_beta      = 0.1
   mixing_ndim      = 10
/
&IONS
/
&CELL
/

ATOMIC_SPECIES
La 138.90547 La.pbe-spfn-rrkjus_psl.1.0.0.UPF
Y 88.90584 Y.pbe-spn-rrkjus_psl.1.0.0.UPF

K_POINTS automatic
12 12 1  0 0 0

CELL_PARAMETERS alat
7.31274100000000 0.00000000000000 0.00000000000000
3.60014100000000 6.36515200000000 0.00000000000000
0.00000000000000 0.00000000000000 25.98548300000000

ATOMIC_POSITIONS alat
La 0.0000000000 0.0000000000 10.0000000000 
La 5.4564410000 3.1825762000 10.0000000000 
Y 3.6563705000 0.0000000000 10.0000000000 
Y 1.8000705000 3.1825762000 10.0000000000 
La 7.3127409000 4.2652995000 12.9927414000 
La 1.8562999000 1.0827233000 12.9927414000 
Y 3.6563705000 4.2652995000 12.9927414000 
Y 5.5126704000 1.0827233000 12.9927414000 
La 3.7009792000 2.1586559000 15.9979764000 
La 9.1574063000 5.3412501000 15.9979850000 
Y 7.3659913000 2.1637504000 15.8504956000 
Y 5.5097333000 5.3462784000 15.8504100000 

