&CONTROL
   calculation      = 'scf'
   tstress          = .true.
   tprnfor          = .true.
   outdir           = './La2Zr2'
   prefix           = 'La2Zr2_beef'
   pseudo_dir       = '../pseudo'
   tefield          = .true.
   dipfield         = .true.
/
&SYSTEM
   celldm(1)        = 1.889726
   ecutwfc          = 55.123963237125
   ecutrho          = 551.23963237125
   nosym            = .true.
   occupations      = 'smearing'
   degauss          = 0.01D0
   smearing         = 'fd'
   input_dft        = 'BEEF-vdW'
   edir             = 3
   emaxpos          = 0.95
   eopreg           = 0.05
   eamp             = 0.01
   ntyp             = 2
   nat              = 12
   ibrav            = 0
/
&ELECTRONS
   electron_maxstep = 500
   conv_thr         = 1e-05
   mixing_mode      = 'plain'
   mixing_beta      = 0.1
   mixing_ndim      = 10
/
&IONS
/
&CELL
/

ATOMIC_SPECIES
La 138.90547 La.pbe-spfn-rrkjus_psl.1.0.0.UPF
Zr 91.224 Zr.pbe-spn-rrkjus_psl.1.0.0.UPF

K_POINTS automatic
12 12 1  0 0 0

CELL_PARAMETERS alat
6.79567000000000 0.00000000000000 0.00000000000000
-3.39783500000000 6.06604600000000 0.00000000000000
0.00000000000000 0.00000000000000 25.62951900000000

ATOMIC_POSITIONS alat
La 0.0000000000 0.0000000000 10.0000000000 
La 3.3978349000 0.0000000000 10.0000000000 
Zr 1.6989174000 3.0330228000 10.0000000000 
Zr -1.6989174000 3.0330228000 10.0000000000 
La 3.3978349000 1.9032633000 12.8147594000 
La -0.0000000000 1.9032633000 12.8147594000 
Zr -1.6989174000 4.9362860000 12.8147594000 
Zr 1.6989174000 4.9362860000 12.8147594000 
La 0.0000067000 3.8761019000 15.7621589000 
La 3.3978429000 3.8760977000 15.7621565000 
Zr 5.0967350000 0.6696908000 15.3540645000 
Zr 1.6989135000 0.6697016000 15.3540537000 

