&CONTROL
   calculation      = 'scf'
   tstress          = .true.
   tprnfor          = .true.
   outdir           = './Mn2Au2'
   prefix           = 'Mn2Au2_beef'
   pseudo_dir       = '../pseudo'
   tefield          = .true.
   dipfield         = .true.
/
&SYSTEM
   celldm(1)        = 1.889726
   ecutwfc          = 55.123963237125
   ecutrho          = 551.23963237125
   nosym            = .true.
   occupations      = 'smearing'
   degauss          = 0.01D0
   smearing         = 'fd'
   input_dft        = 'BEEF-vdW'
   edir             = 3
   emaxpos          = 0.95
   eopreg           = 0.05
   eamp             = 0.01
   nspin            = 2
   starting_magnetization(1) = 0.3333333333333333
   starting_magnetization(2) = 0.0
   ntyp             = 2
   nat              = 12
   ibrav            = 0
/
&ELECTRONS
   electron_maxstep = 500
   conv_thr         = 1e-05
   mixing_mode      = 'plain'
   mixing_beta      = 0.1
   mixing_ndim      = 10
/
&IONS
/
&CELL
/

ATOMIC_SPECIES
Mn  54.938044 Mn.pbe-spn-rrkjus_psl.0.3.1.UPF
Au  196.966569 Au.pbe-n-rrkjus_psl.1.0.0.UPF

K_POINTS automatic
12 12 1  0 0 0

CELL_PARAMETERS alat
5.64075300000000 0.00000000000000 0.00000000000000
1.91990400000000 5.30396600000000 0.00000000000000
0.00000000000000 0.00000000000000 24.61720900000000

ATOMIC_POSITIONS alat
Mn  0.0000000000 0.0000000000 10.0000000000
Mn  3.7803284000 2.6519832000 10.0000000000
Au  2.8203764000 0.0000000000 10.0000000000
Au  0.9599520000 2.6519832000 10.0000000000
Mn  5.6407527000 3.9571117000 12.3086045000
Mn  1.8604244000 1.3051285000 12.3086045000
Au  2.8203764000 3.9571117000 12.3086045000
Au  4.6808007000 1.3051285000 12.3086045000
Mn  3.7209551000 2.6103198000 14.6141109000
Mn  7.5012568000 5.2623099000 14.6140974000
Au  6.5454703000 2.6132634000 14.5690639000
Au  4.6851029000 5.2652290000 14.5690995000

