&CONTROL
   calculation      = 'scf'
   tstress          = .true.
   tprnfor          = .true.
   outdir           = './Mn2Ni2'
   prefix           = 'Mn2Ni2_beef'
   pseudo_dir       = '../pseudo'
   tefield          = .true.
   dipfield         = .true.
/
&SYSTEM
   celldm(1)        = 1.889726
   ecutwfc          = 55.123963237125
   ecutrho          = 551.23963237125
   nosym            = .true.
   occupations      = 'smearing'
   degauss          = 0.01D0
   smearing         = 'fd'
   input_dft        = 'BEEF-vdW'
   edir             = 3
   emaxpos          = 0.95
   eopreg           = 0.05
   eamp             = 0.01
   nspin            = 2
   starting_magnetization(1) = 0.3333333333333333
   starting_magnetization(2) = 0.5
   ntyp             = 2
   nat              = 12
   ibrav            = 0
/
&ELECTRONS
   electron_maxstep = 500
   conv_thr         = 1e-05
   mixing_mode      = 'plain'
   mixing_beta      = 0.1
   mixing_ndim      = 10
/
&IONS
/
&CELL
/

ATOMIC_SPECIES
Mn  54.938044 Mn.pbe-spn-rrkjus_psl.0.3.1.UPF
Ni  58.6934 Ni.pbe-n-rrkjus_psl.1.0.0.UPF

K_POINTS automatic
12 12 1  0 0 0

CELL_PARAMETERS alat
5.09029100000000 0.00000000000000 0.00000000000000
1.63287900000000 4.82128300000000 0.00000000000000
0.00000000000000 0.00000000000000 24.13491700000000

ATOMIC_POSITIONS alat
Mn  0.0000000000 0.0000000000 10.0000000000
Mn  3.3615850000 2.4106416000 10.0000000000
Ni  2.5451456000 0.0000000000 10.0000000000
Ni  0.8164394000 2.4106416000 10.0000000000
Mn  5.0902912000 3.6503220000 12.0674587000
Mn  1.7287062000 1.2396804000 12.0674587000
Ni  2.5451456000 3.6503220000 12.0674587000
Ni  4.2738518000 1.2396804000 12.0674587000
Mn  3.4452305000 2.4706150000 14.1897511000
Mn  0.0838510000 0.0601393000 14.1897556000
Ni  0.9032460000 2.4731879000 14.0066782000
Ni  2.6322269000 0.0621520000 14.0066446000

