&CONTROL
   calculation      = 'scf'
   tstress          = .true.
   tprnfor          = .true.
   outdir           = './Mn2Ta2'
   prefix           = 'Mn2Ta2_beef'
   pseudo_dir       = '../pseudo'
   tefield          = .true.
   dipfield         = .true.
/
&SYSTEM
   celldm(1)        = 1.889726
   ecutwfc          = 55.123963237125
   ecutrho          = 551.23963237125
   nosym            = .true.
   occupations      = 'smearing'
   degauss          = 0.01D0
   smearing         = 'fd'
   input_dft        = 'BEEF-vdW'
   edir             = 3
   emaxpos          = 0.95
   eopreg           = 0.05
   eamp             = 0.01
   nspin            = 2
   starting_magnetization(1) = 0.3333333333333333
   starting_magnetization(2) = 0.0
   ntyp             = 2
   nat              = 12
   ibrav            = 0
/
&ELECTRONS
   electron_maxstep = 500
   conv_thr         = 1e-05
   mixing_mode      = 'plain'
   mixing_beta      = 0.1
   mixing_ndim      = 10
/
&IONS
/
&CELL
/

ATOMIC_SPECIES
Mn  54.938044 Mn.pbe-spn-rrkjus_psl.0.3.1.UPF
Ta  180.94788 Ta.pbe-spfn-rrkjus_psl.1.0.0.UPF

K_POINTS automatic
12 12 1  0 0 0

CELL_PARAMETERS alat
5.30500100000000 0.00000000000000 0.00000000000000
1.76946200000000 5.00120400000000 0.00000000000000
0.00000000000000 0.00000000000000 24.33186000000000

ATOMIC_POSITIONS alat
Mn  0.0000000000 0.0000000000 10.0000000000
Mn  3.5372315000 2.5006020000 10.0000000000
Ta  2.6525005000 0.0000000000 10.0000000000
Ta  0.8847309000 2.5006020000 10.0000000000
Mn  5.3050010000 3.7503048000 12.1659301000
Mn  1.7677696000 1.2497028000 12.1659301000
Ta  2.6525005000 3.7503048000 12.1659301000
Ta  4.4202701000 1.2497028000 12.1659301000
Mn  3.5360214000 2.4997462000 14.2083174000
Mn  7.0732128000 5.0003197000 14.2083184000
Ta  6.1886736000 2.4998153000 14.3603906000
Ta  4.4208682000 5.0004680000 14.3603893000

