&CONTROL
   calculation      = 'scf'
   tstress          = .true.
   tprnfor          = .true.
   outdir           = './Mn2Zr2'
   prefix           = 'Mn2Zr2_beef'
   pseudo_dir       = '../pseudo'
   tefield          = .true.
   dipfield         = .true.
/
&SYSTEM
   celldm(1)        = 1.889726
   ecutwfc          = 55.123963237125
   ecutrho          = 551.23963237125
   nosym            = .true.
   occupations      = 'smearing'
   degauss          = 0.01D0
   smearing         = 'fd'
   input_dft        = 'BEEF-vdW'
   edir             = 3
   emaxpos          = 0.95
   eopreg           = 0.05
   eamp             = 0.01
   nspin            = 2
   starting_magnetization(1) = 0.3333333333333333
   starting_magnetization(2) = 0.0
   ntyp             = 2
   nat              = 12
   ibrav            = 0
/
&ELECTRONS
   electron_maxstep = 500
   conv_thr         = 1e-05
   mixing_mode      = 'plain'
   mixing_beta      = 0.1
   mixing_ndim      = 10
/
&IONS
/
&CELL
/

ATOMIC_SPECIES
Mn  54.938044 Mn.pbe-spn-rrkjus_psl.0.3.1.UPF
Zr  91.224 Zr.pbe-spn-rrkjus_psl.1.0.0.UPF

K_POINTS automatic
12 12 1  0 0 0

CELL_PARAMETERS alat
5.55076800000000 0.00000000000000 0.00000000000000
1.84934700000000 5.23363500000000 0.00000000000000
0.00000000000000 0.00000000000000 24.53190400000000

ATOMIC_POSITIONS alat
Mn  0.0000000000 0.0000000000 10.0000000000
Mn  3.7000571000 2.6168176000 10.0000000000
Zr  2.7753838000 0.0000000000 10.0000000000
Zr  0.9246734000 2.6168176000 10.0000000000
Mn  5.5507675000 3.9257086000 12.2659520000
Mn  1.8507104000 1.3088910000 12.2659520000
Zr  2.7753838000 3.9257086000 12.2659520000
Zr  4.6260942000 1.3088910000 12.2659520000
Mn  3.7013918000 2.6177688000 14.4545334000
Mn  0.0014047000 0.0009863000 14.4545633000
Zr  0.9254983000 2.6174576000 14.6126623000
Zr  2.7762740000 0.0005733000 14.6126695000

