&CONTROL
   calculation      = 'scf'
   tstress          = .true.
   tprnfor          = .true.
   outdir           = './Mo2Au2'
   prefix           = 'Mo2Au2_beef'
   pseudo_dir       = '../pseudo'
   tefield          = .true.
   dipfield         = .true.
/
&SYSTEM
   celldm(1)        = 1.889726
   ecutwfc          = 55.123963237125
   ecutrho          = 551.23963237125
   nosym            = .true.
   occupations      = 'smearing'
   degauss          = 0.01D0
   smearing         = 'fd'
   input_dft        = 'BEEF-vdW'
   edir             = 3
   emaxpos          = 0.95
   eopreg           = 0.05
   eamp             = 0.01
   ntyp             = 2
   nat              = 12
   ibrav            = 0
/
&ELECTRONS
   electron_maxstep = 500
   conv_thr         = 1e-05
   mixing_mode      = 'plain'
   mixing_beta      = 0.1
   mixing_ndim      = 10
/
&IONS
/
&CELL
/

ATOMIC_SPECIES
Mo 95.95 Mo.pbe-spn-rrkjus_psl.1.0.0.UPF
Au 196.966569 Au.pbe-n-rrkjus_psl.1.0.0.UPF

K_POINTS automatic
12 12 1  0 0 0

CELL_PARAMETERS alat
5.50132400000000 0.00000000000000 0.00000000000000
-2.75066200000000 5.19637500000000 0.00000000000000
0.00000000000000 0.00000000000000 24.66736900000000

ATOMIC_POSITIONS alat
Mo 0.0000000000 0.0000000000 10.0000000000 
Mo 2.7506622000 0.0000000000 10.0000000000 
Au 1.3753311000 2.5981875000 10.0000000000 
Au -1.3753311000 2.5981875000 10.0000000000 
Mo 2.7506622000 1.4560424000 12.3336844000 
Mo -0.0000000000 1.4560424000 12.3336844000 
Au -1.3753311000 4.0542300000 12.3336844000 
Au 1.3753311000 4.0542300000 12.3336844000 
Mo -0.0002056000 2.8186332000 14.5086839000 
Mo 2.7504608000 2.8185228000 14.5085563000 
Au 4.1254689000 0.3018348000 14.8250216000 
Au 1.3764586000 0.3018313000 14.8249933000 

