&CONTROL
   calculation      = 'scf'
   tstress          = .true.
   tprnfor          = .true.
   outdir           = './Mo2Ir2'
   prefix           = 'Mo2Ir2_beef'
   pseudo_dir       = '../pseudo'
   tefield          = .true.
   dipfield         = .true.
/
&SYSTEM
   celldm(1)        = 1.889726
   ecutwfc          = 55.123963237125
   ecutrho          = 551.23963237125
   nosym            = .true.
   occupations      = 'smearing'
   degauss          = 0.01D0
   smearing         = 'fd'
   input_dft        = 'BEEF-vdW'
   edir             = 3
   emaxpos          = 0.95
   eopreg           = 0.05
   eamp             = 0.01
   ntyp             = 2
   nat              = 12
   ibrav            = 0
/
&ELECTRONS
   electron_maxstep = 500
   conv_thr         = 1e-05
   mixing_mode      = 'plain'
   mixing_beta      = 0.1
   mixing_ndim      = 10
/
&IONS
/
&CELL
/

ATOMIC_SPECIES
Mo 95.95 Mo.pbe-spn-rrkjus_psl.1.0.0.UPF
Ir 192.217 Ir.pbe-n-rrkjus_psl.0.2.3.UPF

K_POINTS automatic
12 12 1  0 0 0

CELL_PARAMETERS alat
5.53802600000000 0.00000000000000 0.00000000000000
-2.76901300000000 4.80263200000000 0.00000000000000
0.00000000000000 0.00000000000000 24.52486500000000

ATOMIC_POSITIONS alat
Mo 0.0000000000 0.0000000000 10.0000000000 
Mo 2.7690130000 0.0000000000 10.0000000000 
Ir 1.3845065000 2.4013159000 10.0000000000 
Ir -1.3845065000 2.4013159000 10.0000000000 
Mo 2.7690130000 1.5965065000 12.2624323000 
Mo 0.0000000000 1.5965065000 12.2624323000 
Ir -1.3845065000 3.9978224000 12.2624323000 
Ir 1.3845065000 3.9978224000 12.2624323000 
Mo -0.0000001000 3.2295610000 14.4306169000 
Mo 2.7690129000 3.2295648000 14.4306177000 
Ir 4.1535230000 0.8734125000 14.4398712000 
Ir 1.3845037000 0.8734134000 14.4398713000 

