&CONTROL
   calculation      = 'scf'
   tstress          = .true.
   tprnfor          = .true.
   outdir           = './Mo2Pd2'
   prefix           = 'Mo2Pd2_beef'
   pseudo_dir       = '../pseudo'
   tefield          = .true.
   dipfield         = .true.
/
&SYSTEM
   celldm(1)        = 1.889726
   ecutwfc          = 55.123963237125
   ecutrho          = 551.23963237125
   nosym            = .true.
   occupations      = 'smearing'
   degauss          = 0.01D0
   smearing         = 'fd'
   input_dft        = 'BEEF-vdW'
   edir             = 3
   emaxpos          = 0.95
   eopreg           = 0.05
   eamp             = 0.01
   ntyp             = 2
   nat              = 12
   ibrav            = 0
/
&ELECTRONS
   electron_maxstep = 500
   conv_thr         = 1e-05
   mixing_mode      = 'plain'
   mixing_beta      = 0.1
   mixing_ndim      = 10
/
&IONS
/
&CELL
/

ATOMIC_SPECIES
Mo 95.95 Mo.pbe-spn-rrkjus_psl.1.0.0.UPF
Pd 106.42 Pd.pbe-n-rrkjus_psl.1.0.0.UPF

K_POINTS automatic
12 12 1  0 0 0

CELL_PARAMETERS alat
5.45738700000000 0.00000000000000 0.00000000000000
-2.72869400000000 4.97161600000000 0.00000000000000
0.00000000000000 0.00000000000000 24.56192800000000

ATOMIC_POSITIONS alat
Mo 0.0000000000 0.0000000000 10.0000000000 
Mo 2.7286937000 0.0000000000 10.0000000000 
Pd 1.3643468000 2.4858080000 10.0000000000 
Pd -1.3643468000 2.4858080000 10.0000000000 
Mo 2.7286937000 1.4976557000 12.2809639000 
Mo -0.0000000000 1.4976557000 12.2809639000 
Pd -1.3643468000 3.9834637000 12.2809639000 
Pd 1.3643468000 3.9834637000 12.2809639000 
Mo 0.0000282000 3.0369435000 14.4275273000 
Mo 2.7287218000 3.0369268000 14.4275033000 
Pd 4.0929830000 0.6251200000 14.5638578000 
Pd 1.3643169000 0.6251194000 14.5638572000 

