&CONTROL
   calculation      = 'scf'
   tstress          = .true.
   tprnfor          = .true.
   outdir           = './Mo2Pt2'
   prefix           = 'Mo2Pt2_beef'
   pseudo_dir       = '../pseudo'
   tefield          = .true.
   dipfield         = .true.
/
&SYSTEM
   celldm(1)        = 1.889726
   ecutwfc          = 55.123963237125
   ecutrho          = 551.23963237125
   nosym            = .true.
   occupations      = 'smearing'
   degauss          = 0.01D0
   smearing         = 'fd'
   input_dft        = 'BEEF-vdW'
   edir             = 3
   emaxpos          = 0.95
   eopreg           = 0.05
   eamp             = 0.01
   ntyp             = 2
   nat              = 12
   ibrav            = 0
/
&ELECTRONS
   electron_maxstep = 500
   conv_thr         = 1e-05
   mixing_mode      = 'plain'
   mixing_beta      = 0.1
   mixing_ndim      = 10
/
&IONS
/
&CELL
/

ATOMIC_SPECIES
Mo 95.95 Mo.pbe-spn-rrkjus_psl.1.0.0.UPF
Pt 195.084 Pt.pbe-n-rrkjus_psl.1.0.0.UPF

K_POINTS automatic
12 12 1  0 0 0

CELL_PARAMETERS alat
5.46960900000000 0.00000000000000 0.00000000000000
-2.73480500000000 4.96724900000000 0.00000000000000
0.00000000000000 0.00000000000000 24.56598000000000

ATOMIC_POSITIONS alat
Mo 0.0000000000 0.0000000000 10.0000000000 
Mo 2.7348046000 0.0000000000 10.0000000000 
Pt 1.3674023000 2.4836245000 10.0000000000 
Pt -1.3674023000 2.4836245000 10.0000000000 
Mo 2.7348046000 1.5056938000 12.2829898000 
Mo 0.0000000000 1.5056938000 12.2829898000 
Pt -1.3674023000 3.9893183000 12.2829898000 
Pt 1.3674023000 3.9893183000 12.2829898000 
Mo -0.0000534000 3.1189049000 14.4806105000 
Mo 2.7347475000 3.1188857000 14.4806087000 
Pt 4.1022062000 0.7306245000 14.5279612000 
Pt 1.3673663000 0.7306228000 14.5279611000 

