&CONTROL
   calculation      = 'scf'
   tstress          = .true.
   tprnfor          = .true.
   outdir           = './Mo2Rh2'
   prefix           = 'Mo2Rh2_beef'
   pseudo_dir       = '../pseudo'
   tefield          = .true.
   dipfield         = .true.
/
&SYSTEM
   celldm(1)        = 1.889726
   ecutwfc          = 55.123963237125
   ecutrho          = 551.23963237125
   nosym            = .true.
   occupations      = 'smearing'
   degauss          = 0.01D0
   smearing         = 'fd'
   input_dft        = 'BEEF-vdW'
   edir             = 3
   emaxpos          = 0.95
   eopreg           = 0.05
   eamp             = 0.01
   ntyp             = 2
   nat              = 12
   ibrav            = 0
/
&ELECTRONS
   electron_maxstep = 500
   conv_thr         = 1e-05
   mixing_mode      = 'plain'
   mixing_beta      = 0.1
   mixing_ndim      = 10
/
&IONS
/
&CELL
/

ATOMIC_SPECIES
Mo 95.95 Mo.pbe-spn-rrkjus_psl.1.0.0.UPF
Rh 102.9055 Rh.pbe-spn-rrkjus_psl.1.0.0.UPF

K_POINTS automatic
12 12 1  0 0 0

CELL_PARAMETERS alat
5.50254500000000 0.00000000000000 0.00000000000000
-2.75127200000000 4.79756200000000 0.00000000000000
0.00000000000000 0.00000000000000 24.50781900000000

ATOMIC_POSITIONS alat
Mo 0.0000000000 0.0000000000 10.0000000000 
Mo 2.7512724000 0.0000000000 10.0000000000 
Rh 1.3756362000 2.3987809000 10.0000000000 
Rh -1.3756362000 2.3987809000 10.0000000000 
Mo 2.7512724000 1.5777805000 12.2539095000 
Mo 0.0000000000 1.5777805000 12.2539095000 
Rh -1.3756362000 3.9765614000 12.2539095000 
Rh 1.3756362000 3.9765614000 12.2539095000 
Mo 0.0000003000 3.1824488000 14.3957980000 
Mo 2.7512729000 3.1824457000 14.3957963000 
Rh 4.1269066000 0.8336035000 14.4458349000 
Rh 1.3756392000 0.8336036000 14.4458357000 

