&CONTROL
   calculation      = 'scf'
   tstress          = .true.
   tprnfor          = .true.
   outdir           = './Mo2Tc2'
   prefix           = 'Mo2Tc2_beef'
   pseudo_dir       = '../pseudo'
   tefield          = .true.
   dipfield         = .true.
/
&SYSTEM
   celldm(1)        = 1.889726
   ecutwfc          = 55.123963237125
   ecutrho          = 551.23963237125
   nosym            = .true.
   occupations      = 'smearing'
   degauss          = 0.01D0
   smearing         = 'fd'
   input_dft        = 'BEEF-vdW'
   edir             = 3
   emaxpos          = 0.95
   eopreg           = 0.05
   eamp             = 0.01
   ntyp             = 2
   nat              = 12
   ibrav            = 0
/
&ELECTRONS
   electron_maxstep = 500
   conv_thr         = 1e-05
   mixing_mode      = 'plain'
   mixing_beta      = 0.1
   mixing_ndim      = 10
/
&IONS
/
&CELL
/

ATOMIC_SPECIES
Mo 95.95 Mo.pbe-spn-rrkjus_psl.1.0.0.UPF
Tc 97.90721 Tc.pbe-spn-rrkjus_psl.0.3.0.UPF

K_POINTS automatic
12 12 1  0 0 0

CELL_PARAMETERS alat
5.55820100000000 0.00000000000000 0.00000000000000
2.74201200000000 4.83476700000000 0.00000000000000
0.00000000000000 0.00000000000000 24.54797500000000

ATOMIC_POSITIONS alat
Mo 0.0000000000 0.0000000000 10.0000000000 
Mo 4.1501064000 2.4173834000 10.0000000000 
Tc 2.7791005000 0.0000000000 10.0000000000 
Tc 1.3710059000 2.4173834000 10.0000000000 
Mo 5.5582010000 3.2375804000 12.2739876000 
Mo 1.4080946000 0.8201970000 12.2739876000 
Tc 2.7791005000 3.2375804000 12.2739876000 
Tc 4.1871952000 0.8201970000 12.2739876000 
Mo 2.8167468000 1.6407171000 14.4365342000 
Mo 6.9668529000 4.0581029000 14.4365340000 
Tc 5.5815762000 1.6324067000 14.4673104000 
Tc 4.1734783000 4.0497874000 14.4673096000 

