&CONTROL
   calculation      = 'scf'
   tstress          = .true.
   tprnfor          = .true.
   outdir           = './Nb2Hf2'
   prefix           = 'Nb2Hf2_beef'
   pseudo_dir       = '../pseudo'
   tefield          = .true.
   dipfield         = .true.
/
&SYSTEM
   celldm(1)        = 1.889726
   ecutwfc          = 55.123963237125
   ecutrho          = 551.23963237125
   nosym            = .true.
   occupations      = 'smearing'
   degauss          = 0.01D0
   smearing         = 'fd'
   input_dft        = 'BEEF-vdW'
   edir             = 3
   emaxpos          = 0.95
   eopreg           = 0.05
   eamp             = 0.01
   ntyp             = 2
   nat              = 12
   ibrav            = 0
/
&ELECTRONS
   electron_maxstep = 500
   conv_thr         = 1e-05
   mixing_mode      = 'plain'
   mixing_beta      = 0.1
   mixing_ndim      = 10
/
&IONS
/
&CELL
/

ATOMIC_SPECIES
Nb 92.90637 Nb.pbe-spn-rrkjus_psl.1.0.0.UPF
Hf 178.49 Hf.pbe-spn-rrkjus_psl.1.0.0.UPF

K_POINTS automatic
12 12 1  0 0 0

CELL_PARAMETERS alat
5.88613900000000 0.00000000000000 0.00000000000000
-2.94307000000000 5.53984500000000 0.00000000000000
0.00000000000000 0.00000000000000 24.98680800000000

ATOMIC_POSITIONS alat
Nb 0.0000000000 0.0000000000 10.0000000000 
Nb 2.9430695000 0.0000000000 10.0000000000 
Hf 1.4715348000 2.7699225000 10.0000000000 
Hf -1.4715348000 2.7699225000 10.0000000000 
Nb 2.9430695000 1.5635199000 12.4934040000 
Nb 0.0000000000 1.5635199000 12.4934040000 
Hf -1.4715348000 4.3334425000 12.4934040000 
Hf 1.4715348000 4.3334425000 12.4934040000 
Nb 0.0001688000 3.0634119000 14.7704236000 
Nb 2.9432383000 3.0634118000 14.7704220000 
Hf 4.4148258000 0.3850712000 15.0262310000 
Hf 1.4717916000 0.3850686000 15.0262361000 

