&CONTROL
   calculation      = 'scf'
   tstress          = .true.
   tprnfor          = .true.
   outdir           = './Nb2Mo2'
   prefix           = 'Nb2Mo2_beef'
   pseudo_dir       = '../pseudo'
   tefield          = .true.
   dipfield         = .true.
/
&SYSTEM
   celldm(1)        = 1.889726
   ecutwfc          = 55.123963237125
   ecutrho          = 551.23963237125
   nosym            = .true.
   occupations      = 'smearing'
   degauss          = 0.01D0
   smearing         = 'fd'
   input_dft        = 'BEEF-vdW'
   edir             = 3
   emaxpos          = 0.95
   eopreg           = 0.05
   eamp             = 0.01
   ntyp             = 2
   nat              = 12
   ibrav            = 0
/
&ELECTRONS
   electron_maxstep = 500
   conv_thr         = 1e-05
   mixing_mode      = 'plain'
   mixing_beta      = 0.1
   mixing_ndim      = 10
/
&IONS
/
&CELL
/

ATOMIC_SPECIES
Nb 92.90637 Nb.pbe-spn-rrkjus_psl.1.0.0.UPF
Mo 95.95 Mo.pbe-spn-rrkjus_psl.1.0.0.UPF

K_POINTS automatic
12 12 1  0 0 0

CELL_PARAMETERS alat
5.36490300000000 0.00000000000000 0.00000000000000
-2.68245200000000 5.50483900000000 0.00000000000000
0.00000000000000 0.00000000000000 24.68485000000000

ATOMIC_POSITIONS alat
Nb 0.0000000000 0.0000000000 10.0000000000 
Nb 2.6824515000 0.0000000000 10.0000000000 
Mo 1.3412258000 2.7524196000 10.0000000000 
Mo -1.3412258000 2.7524196000 10.0000000000 
Nb 2.6824515000 1.3071311000 12.3424249000 
Nb -0.0000000000 1.3071311000 12.3424249000 
Mo -1.3412258000 4.0595506000 12.3424249000 
Mo 1.3412258000 4.0595506000 12.3424249000 
Nb 0.0000304000 2.6373270000 14.7121202000 
Nb 2.6824822000 2.6373318000 14.7121272000 
Mo 1.3412497000 5.3462773000 14.5858759000 
Mo -1.3411975000 5.3462762000 14.5858771000 

