&CONTROL
   calculation      = 'scf'
   tstress          = .true.
   tprnfor          = .true.
   outdir           = './Nb2Rh2'
   prefix           = 'Nb2Rh2_beef'
   pseudo_dir       = '../pseudo'
   tefield          = .true.
   dipfield         = .true.
/
&SYSTEM
   celldm(1)        = 1.889726
   ecutwfc          = 55.123963237125
   ecutrho          = 551.23963237125
   nosym            = .true.
   occupations      = 'smearing'
   degauss          = 0.01D0
   smearing         = 'fd'
   input_dft        = 'BEEF-vdW'
   edir             = 3
   emaxpos          = 0.95
   eopreg           = 0.05
   eamp             = 0.01
   ntyp             = 2
   nat              = 12
   ibrav            = 0
/
&ELECTRONS
   electron_maxstep = 500
   conv_thr         = 1e-05
   mixing_mode      = 'plain'
   mixing_beta      = 0.1
   mixing_ndim      = 10
/
&IONS
/
&CELL
/

ATOMIC_SPECIES
Nb 92.90637 Nb.pbe-spn-rrkjus_psl.1.0.0.UPF
Rh 102.9055 Rh.pbe-spn-rrkjus_psl.1.0.0.UPF

K_POINTS automatic
12 12 1  0 0 0

CELL_PARAMETERS alat
5.61937000000000 0.00000000000000 0.00000000000000
2.68813600000000 4.93469800000000 0.00000000000000
0.00000000000000 0.00000000000000 24.61731300000000

ATOMIC_POSITIONS alat
Nb 0.0000000000 0.0000000000 10.0000000000 
Nb 4.1537528000 2.4673489000 10.0000000000 
Rh 2.8096849000 0.0000000000 10.0000000000 
Rh 1.3440679000 2.4673489000 10.0000000000 
Nb 5.6193698000 3.3379324000 12.3086566000 
Nb 1.4656170000 0.8705834000 12.3086566000 
Rh 2.8096849000 3.3379324000 12.3086566000 
Rh 4.2753019000 0.8705834000 12.3086566000 
Nb 2.9485009000 1.7514235000 14.5136372000 
Nb 7.1022557000 4.2187738000 14.5136387000 
Rh 5.7619851000 1.7536795000 14.5493143000 
Rh 4.2963680000 4.2210294000 14.5493146000 

