&CONTROL
   calculation      = 'scf'
   tstress          = .true.
   tprnfor          = .true.
   outdir           = './Nb2Tc2'
   prefix           = 'Nb2Tc2_beef'
   pseudo_dir       = '../pseudo'
   tefield          = .true.
   dipfield         = .true.
/
&SYSTEM
   celldm(1)        = 1.889726
   ecutwfc          = 55.123963237125
   ecutrho          = 551.23963237125
   nosym            = .true.
   occupations      = 'smearing'
   degauss          = 0.01D0
   smearing         = 'fd'
   input_dft        = 'BEEF-vdW'
   edir             = 3
   emaxpos          = 0.95
   eopreg           = 0.05
   eamp             = 0.01
   ntyp             = 2
   nat              = 12
   ibrav            = 0
/
&ELECTRONS
   electron_maxstep = 500
   conv_thr         = 1e-05
   mixing_mode      = 'plain'
   mixing_beta      = 0.1
   mixing_ndim      = 10
/
&IONS
/
&CELL
/

ATOMIC_SPECIES
Nb 92.90637 Nb.pbe-spn-rrkjus_psl.1.0.0.UPF
Tc 97.90721 Tc.pbe-spn-rrkjus_psl.0.3.0.UPF

K_POINTS automatic
12 12 1  0 0 0

CELL_PARAMETERS alat
5.51123300000000 0.00000000000000 0.00000000000000
1.80467600000000 5.20738200000000 0.00000000000000
0.00000000000000 0.00000000000000 24.48957500000000

ATOMIC_POSITIONS alat
Nb 0.0000000000 0.0000000000 10.0000000000 
Nb 3.6579545000 2.6036911000 10.0000000000 
Tc 2.7556164000 0.0000000000 10.0000000000 
Tc 0.9023382000 2.6036911000 10.0000000000 
Nb 5.5112328000 3.9228338000 12.2447873000 
Nb 1.8532782000 1.3191427000 12.2447873000 
Tc 2.7556164000 3.9228338000 12.2447873000 
Tc 4.6088946000 1.3191427000 12.2447873000 
Nb 3.6860484000 2.6236879000 14.4832697000 
Nb 0.0280931000 0.0199962000 14.4832701000 
Tc 0.9330288000 2.6255382000 14.3674075000 
Tc 2.7863049000 0.0218436000 14.3674060000 

