&CONTROL
   calculation      = 'scf'
   tstress          = .true.
   tprnfor          = .true.
   outdir           = './Ni2Au2'
   prefix           = 'Ni2Au2_beef'
   pseudo_dir       = '../pseudo'
   tefield          = .true.
   dipfield         = .true.
/
&SYSTEM
   celldm(1)        = 1.889726
   ecutwfc          = 55.123963237125
   ecutrho          = 551.23963237125
   nosym            = .true.
   occupations      = 'smearing'
   degauss          = 0.01D0
   smearing         = 'fd'
   input_dft        = 'BEEF-vdW'
   edir             = 3
   emaxpos          = 0.95
   eopreg           = 0.05
   eamp             = 0.01
   nspin            = 2
   starting_magnetization(1) = 0.5
   starting_magnetization(2) = 0.0
   ntyp             = 2
   nat              = 12
   ibrav            = 0
/
&ELECTRONS
   electron_maxstep = 500
   conv_thr         = 1e-05
   mixing_mode      = 'plain'
   mixing_beta      = 0.1
   mixing_ndim      = 10
/
&IONS
/
&CELL
/

ATOMIC_SPECIES
Ni  58.6934 Ni.pbe-n-rrkjus_psl.1.0.0.UPF
Au  196.966569 Au.pbe-n-rrkjus_psl.1.0.0.UPF

K_POINTS automatic
12 12 1  0 0 0

CELL_PARAMETERS alat
5.38147600000000 0.00000000000000 0.00000000000000
2.18605100000000 4.91746600000000 0.00000000000000
0.00000000000000 0.00000000000000 24.45757000000000

ATOMIC_POSITIONS alat
Ni  0.0000000000 0.0000000000 10.0000000000
Ni  3.7837637000 2.4587329000 10.0000000000
Au  2.6907382000 0.0000000000 10.0000000000
Au  1.0930255000 2.4587329000 10.0000000000
Ni  5.3814764000 3.4969449000 12.2287852000
Ni  1.5977127000 1.0382120000 12.2287852000
Au  2.6907382000 3.4969449000 12.2287852000
Au  4.2884509000 1.0382120000 12.2287852000
Ni  3.1811907000 2.0671719000 14.3981251000
Ni  6.9651731000 4.5260513000 14.3981796000
Au  5.8969737000 2.0833586000 14.5214415000
Au  4.2991788000 4.5422183000 14.5214425000

