&CONTROL
   calculation      = 'scf'
   tstress          = .true.
   tprnfor          = .true.
   outdir           = './Ni2Cu2'
   prefix           = 'Ni2Cu2_beef'
   pseudo_dir       = '../pseudo'
   tefield          = .true.
   dipfield         = .true.
/
&SYSTEM
   celldm(1)        = 1.889726
   ecutwfc          = 55.123963237125
   ecutrho          = 551.23963237125
   nosym            = .true.
   occupations      = 'smearing'
   degauss          = 0.01D0
   smearing         = 'fd'
   input_dft        = 'BEEF-vdW'
   edir             = 3
   emaxpos          = 0.95
   eopreg           = 0.05
   eamp             = 0.01
   nspin            = 2
   starting_magnetization(1) = 0.5
   starting_magnetization(2) = 0.0
   ntyp             = 2
   nat              = 12
   ibrav            = 0
/
&ELECTRONS
   electron_maxstep = 500
   conv_thr         = 1e-05
   mixing_mode      = 'plain'
   mixing_beta      = 0.1
   mixing_ndim      = 10
/
&IONS
/
&CELL
/

ATOMIC_SPECIES
Ni  58.6934 Ni.pbe-n-rrkjus_psl.1.0.0.UPF
Cu  63.546 Cu.pbe-dn-rrkjus_psl.1.0.0.UPF

K_POINTS automatic
12 12 1  0 0 0

CELL_PARAMETERS alat
5.00581900000000 0.00000000000000 0.00000000000000
-2.50290900000000 4.46891100000000 0.00000000000000
0.00000000000000 0.00000000000000 24.14704200000000

ATOMIC_POSITIONS alat
Ni  0.0000000000 0.0000000000 10.0000000000
Ni  2.5029094000 0.0000000000 10.0000000000
Cu  1.2514547000 2.2344554000 10.0000000000
Cu  -1.2514547000 2.2344554000 10.0000000000
Ni  2.5029094000 1.4018081000 12.0735210000
Ni  -0.0000000000 1.4018081000 12.0735210000
Cu  -1.2514547000 3.6362635000 12.0735210000
Cu  1.2514547000 3.6362635000 12.0735210000
Ni  -0.0000165000 2.7956798000 14.0994330000
Ni  2.5029189000 2.7953720000 14.0992731000
Cu  3.7540512000 0.5773498000 14.1737809000
Cu  1.2517745000 0.5773413000 14.1737812000

