&CONTROL
   calculation      = 'scf'
   tstress          = .true.
   tprnfor          = .true.
   outdir           = './Ni2Hg2'
   prefix           = 'Ni2Hg2_beef'
   pseudo_dir       = '../pseudo'
   tefield          = .true.
   dipfield         = .true.
/
&SYSTEM
   celldm(1)        = 1.889726
   ecutwfc          = 55.123963237125
   ecutrho          = 551.23963237125
   nosym            = .true.
   occupations      = 'smearing'
   degauss          = 0.01D0
   smearing         = 'fd'
   input_dft        = 'BEEF-vdW'
   edir             = 3
   emaxpos          = 0.95
   eopreg           = 0.05
   eamp             = 0.01
   nspin            = 2
   starting_magnetization(1) = 0.5
   starting_magnetization(2) = 0.0
   ntyp             = 2
   nat              = 12
   ibrav            = 0
/
&ELECTRONS
   electron_maxstep = 500
   conv_thr         = 1e-05
   mixing_mode      = 'plain'
   mixing_beta      = 0.1
   mixing_ndim      = 10
/
&IONS
/
&CELL
/

ATOMIC_SPECIES
Ni  58.6934 Ni.pbe-n-rrkjus_psl.1.0.0.UPF
Hg  200.592 Hg.pbe-n-rrkjus_psl.1.0.0.UPF

K_POINTS automatic
12 12 1  0 0 0

CELL_PARAMETERS alat
5.51931100000000 0.00000000000000 0.00000000000000
1.80191700000000 5.21688500000000 0.00000000000000
0.00000000000000 0.00000000000000 24.49435300000000

ATOMIC_POSITIONS alat
Ni  0.0000000000 0.0000000000 10.0000000000
Ni  3.6606140000 2.6084426000 10.0000000000
Hg  2.7596556000 0.0000000000 10.0000000000
Hg  0.9009584000 2.6084426000 10.0000000000
Ni  5.5193111000 3.9328938000 12.2471764000
Ni  1.8586971000 1.3244512000 12.2471764000
Hg  2.7596556000 3.9328938000 12.2471764000
Hg  4.6183527000 1.3244512000 12.2471764000
Ni  3.7193892000 2.6503233000 14.3534780000
Ni  0.0587973000 0.0418965000 14.3534932000
Hg  0.9582665000 2.6492828000 14.7329822000
Hg  2.8169670000 0.0408338000 14.7329820000

