&CONTROL
   calculation      = 'scf'
   tstress          = .true.
   tprnfor          = .true.
   outdir           = './Ni2Ir2'
   prefix           = 'Ni2Ir2_beef'
   pseudo_dir       = '../pseudo'
   tefield          = .true.
   dipfield         = .true.
/
&SYSTEM
   celldm(1)        = 1.889726
   ecutwfc          = 55.123963237125
   ecutrho          = 551.23963237125
   nosym            = .true.
   occupations      = 'smearing'
   degauss          = 0.01D0
   smearing         = 'fd'
   input_dft        = 'BEEF-vdW'
   edir             = 3
   emaxpos          = 0.95
   eopreg           = 0.05
   eamp             = 0.01
   nspin            = 2
   starting_magnetization(1) = 0.5
   starting_magnetization(2) = 0.0
   ntyp             = 2
   nat              = 12
   ibrav            = 0
/
&ELECTRONS
   electron_maxstep = 500
   conv_thr         = 1e-05
   mixing_mode      = 'plain'
   mixing_beta      = 0.1
   mixing_ndim      = 10
/
&IONS
/
&CELL
/

ATOMIC_SPECIES
Ni  58.6934 Ni.pbe-n-rrkjus_psl.1.0.0.UPF
Ir  192.217 Ir.pbe-n-rrkjus_psl.0.2.3.UPF

K_POINTS automatic
12 12 1  0 0 0

CELL_PARAMETERS alat
5.22041400000000 0.00000000000000 0.00000000000000
2.47682100000000 4.59544100000000 0.00000000000000
0.00000000000000 0.00000000000000 24.29360700000000

ATOMIC_POSITIONS alat
Ni  0.0000000000 0.0000000000 10.0000000000
Ni  3.8486176000 2.2977206000 10.0000000000
Ir  2.6102070000 0.0000000000 10.0000000000
Ir  1.2384106000 2.2977206000 10.0000000000
Ni  5.2204140000 3.1167172000 12.1468033000
Ni  1.3717964000 0.8189966000 12.1468033000
Ir  2.6102070000 3.1167172000 12.1468033000
Ir  3.9820034000 0.8189966000 12.1468033000
Ni  2.6499037000 1.5820596000 14.2533437000
Ni  6.4986699000 3.8798672000 14.2534270000
Ir  5.2775344000 1.5924016000 14.2595159000
Ir  3.9056860000 3.8902100000 14.2595158000

