&CONTROL
   calculation      = 'scf'
   tstress          = .true.
   tprnfor          = .true.
   outdir           = './Ni2Os2'
   prefix           = 'Ni2Os2_beef'
   pseudo_dir       = '../pseudo'
   tefield          = .true.
   dipfield         = .true.
/
&SYSTEM
   celldm(1)        = 1.889726
   ecutwfc          = 55.123963237125
   ecutrho          = 551.23963237125
   nosym            = .true.
   occupations      = 'smearing'
   degauss          = 0.01D0
   smearing         = 'fd'
   input_dft        = 'BEEF-vdW'
   edir             = 3
   emaxpos          = 0.95
   eopreg           = 0.05
   eamp             = 0.01
   nspin            = 2
   starting_magnetization(1) = 0.5
   starting_magnetization(2) = 0.0
   ntyp             = 2
   nat              = 12
   ibrav            = 0
/
&ELECTRONS
   electron_maxstep = 500
   conv_thr         = 1e-05
   mixing_mode      = 'plain'
   mixing_beta      = 0.1
   mixing_ndim      = 10
/
&IONS
/
&CELL
/

ATOMIC_SPECIES
Ni  58.6934 Ni.pbe-n-rrkjus_psl.1.0.0.UPF
Os  190.23 Os.pbe-spn-rrkjus_psl.1.0.0.UPF

K_POINTS automatic
12 12 1  0 0 0

CELL_PARAMETERS alat
5.23571500000000 0.00000000000000 0.00000000000000
-2.61785700000000 4.54628500000000 0.00000000000000
0.00000000000000 0.00000000000000 24.28058500000000

ATOMIC_POSITIONS alat
Ni  0.0000000000 0.0000000000 10.0000000000
Ni  2.6178575000 0.0000000000 10.0000000000
Os  1.3089287000 2.2731426000 10.0000000000
Os  -1.3089287000 2.2731426000 10.0000000000
Ni  2.6178575000 1.5074236000 12.1402924000
Ni  -0.0000000000 1.5074236000 12.1402924000
Os  -1.3089287000 3.7805662000 12.1402924000
Os  1.3089287000 3.7805662000 12.1402924000
Ni  0.0000002000 2.9849089000 14.2212233000
Ni  2.6178575000 2.9849994000 14.2213258000
Os  3.9267385000 0.6889794000 14.2197980000
Os  1.3089760000 0.6889793000 14.2197980000

