&CONTROL
   calculation      = 'scf'
   tstress          = .true.
   tprnfor          = .true.
   outdir           = './Ni2Pt2'
   prefix           = 'Ni2Pt2_beef'
   pseudo_dir       = '../pseudo'
   tefield          = .true.
   dipfield         = .true.
/
&SYSTEM
   celldm(1)        = 1.889726
   ecutwfc          = 55.123963237125
   ecutrho          = 551.23963237125
   nosym            = .true.
   occupations      = 'smearing'
   degauss          = 0.01D0
   smearing         = 'fd'
   input_dft        = 'BEEF-vdW'
   edir             = 3
   emaxpos          = 0.95
   eopreg           = 0.05
   eamp             = 0.01
   nspin            = 2
   starting_magnetization(1) = 0.5
   starting_magnetization(2) = 0.0
   ntyp             = 2
   nat              = 12
   ibrav            = 0
/
&ELECTRONS
   electron_maxstep = 500
   conv_thr         = 1e-05
   mixing_mode      = 'plain'
   mixing_beta      = 0.1
   mixing_ndim      = 10
/
&IONS
/
&CELL
/

ATOMIC_SPECIES
Ni  58.6934 Ni.pbe-n-rrkjus_psl.1.0.0.UPF
Pt  195.084 Pt.pbe-n-rrkjus_psl.1.0.0.UPF

K_POINTS automatic
12 12 1  0 0 0

CELL_PARAMETERS alat
5.31355900000000 0.00000000000000 0.00000000000000
2.49889800000000 4.68928800000000 0.00000000000000
0.00000000000000 0.00000000000000 24.37437800000000

ATOMIC_POSITIONS alat
Ni  0.0000000000 0.0000000000 10.0000000000
Ni  3.9062289000 2.3446440000 10.0000000000
Pt  2.6567797000 0.0000000000 10.0000000000
Pt  1.2494491000 2.3446440000 10.0000000000
Ni  5.3135595000 3.1893690000 12.1871889000
Ni  1.4073306000 0.8447250000 12.1871889000
Pt  2.6567797000 3.1893690000 12.1871889000
Pt  4.0641104000 0.8447250000 12.1871889000
Ni  2.7980536000 1.6794818000 14.3530740000
Ni  6.7042097000 4.0240823000 14.3530644000
Pt  5.4909302000 1.7011383000 14.3703136000
Pt  4.0835909000 4.0457967000 14.3703133000

