&CONTROL
   calculation      = 'scf'
   tstress          = .true.
   tprnfor          = .true.
   outdir           = './Ni2Re2'
   prefix           = 'Ni2Re2_beef'
   pseudo_dir       = '../pseudo'
   tefield          = .true.
   dipfield         = .true.
/
&SYSTEM
   celldm(1)        = 1.889726
   ecutwfc          = 55.123963237125
   ecutrho          = 551.23963237125
   nosym            = .true.
   occupations      = 'smearing'
   degauss          = 0.01D0
   smearing         = 'fd'
   input_dft        = 'BEEF-vdW'
   edir             = 3
   emaxpos          = 0.95
   eopreg           = 0.05
   eamp             = 0.01
   nspin            = 2
   starting_magnetization(1) = 0.5
   starting_magnetization(2) = 0.0
   ntyp             = 2
   nat              = 12
   ibrav            = 0
/
&ELECTRONS
   electron_maxstep = 500
   conv_thr         = 1e-05
   mixing_mode      = 'plain'
   mixing_beta      = 0.1
   mixing_ndim      = 10
/
&IONS
/
&CELL
/

ATOMIC_SPECIES
Ni  58.6934 Ni.pbe-n-rrkjus_psl.1.0.0.UPF
Re  186.207 Re.pbe-spn-rrkjus_psl.1.0.0.UPF

K_POINTS automatic
12 12 1  0 0 0

CELL_PARAMETERS alat
5.23573400000000 0.00000000000000 0.00000000000000
-2.61786700000000 4.61586600000000 0.00000000000000
0.00000000000000 0.00000000000000 24.31224300000000

ATOMIC_POSITIONS alat
Ni  0.0000000000 0.0000000000 10.0000000000
Ni  2.6178670000 0.0000000000 10.0000000000
Re  1.3089335000 2.3079331000 10.0000000000
Re  -1.3089335000 2.3079331000 10.0000000000
Ni  2.6178670000 1.4847111000 12.1561217000
Ni  -0.0000000000 1.4847111000 12.1561217000
Re  -1.3089335000 3.7926441000 12.1561217000
Re  1.3089335000 3.7926441000 12.1561217000
Ni  0.0000005000 2.9854872000 14.2539157000
Ni  2.6178677000 2.9853720000 14.2538167000
Re  3.9268422000 0.6616891000 14.2404661000
Re  1.3088910000 0.6616894000 14.2404659000

