&CONTROL
   calculation      = 'scf'
   tstress          = .true.
   tprnfor          = .true.
   outdir           = './Ni2Zn2'
   prefix           = 'Ni2Zn2_beef'
   pseudo_dir       = '../pseudo'
   tefield          = .true.
   dipfield         = .true.
/
&SYSTEM
   celldm(1)        = 1.889726
   ecutwfc          = 55.123963237125
   ecutrho          = 551.23963237125
   nosym            = .true.
   occupations      = 'smearing'
   degauss          = 0.01D0
   smearing         = 'fd'
   input_dft        = 'BEEF-vdW'
   edir             = 3
   emaxpos          = 0.95
   eopreg           = 0.05
   eamp             = 0.01
   nspin            = 2
   starting_magnetization(1) = 0.5
   starting_magnetization(2) = 0.0
   ntyp             = 2
   nat              = 12
   ibrav            = 0
/
&ELECTRONS
   electron_maxstep = 500
   conv_thr         = 1e-05
   mixing_mode      = 'plain'
   mixing_beta      = 0.1
   mixing_ndim      = 10
/
&IONS
/
&CELL
/

ATOMIC_SPECIES
Ni  58.6934 Ni.pbe-n-rrkjus_psl.1.0.0.UPF
Zn  65.38 Zn.pbe-spn-rrkjus_psl.1.0.0.UPF

K_POINTS automatic
12 12 1  0 0 0

CELL_PARAMETERS alat
5.07427500000000 0.00000000000000 0.00000000000000
2.14205900000000 4.59998400000000 0.00000000000000
0.00000000000000 0.00000000000000 24.20312600000000

ATOMIC_POSITIONS alat
Ni  0.0000000000 0.0000000000 10.0000000000
Ni  3.6081670000 2.2999918000 10.0000000000
Zn  2.5371375000 0.0000000000 10.0000000000
Zn  1.0710295000 2.2999918000 10.0000000000
Ni  5.0742750000 3.2345485000 12.1015629000
Ni  1.4661080000 0.9345566000 12.1015629000
Zn  2.5371375000 3.2345485000 12.1015629000
Zn  4.0032455000 0.9345566000 12.1015629000
Ni  2.9236024000 1.8636222000 14.1070951000
Ni  6.5315725000 4.1634887000 14.1070244000
Zn  5.4667725000 1.8677362000 14.3093895000
Zn  4.0009074000 4.1673462000 14.3093896000

