&CONTROL
   calculation      = 'scf'
   tstress          = .true.
   tprnfor          = .true.
   outdir           = './Os2Hg2'
   prefix           = 'Os2Hg2_beef'
   pseudo_dir       = '../pseudo'
   tefield          = .true.
   dipfield         = .true.
/
&SYSTEM
   celldm(1)        = 1.889726
   ecutwfc          = 55.123963237125
   ecutrho          = 551.23963237125
   nosym            = .true.
   occupations      = 'smearing'
   degauss          = 0.01D0
   smearing         = 'fd'
   input_dft        = 'BEEF-vdW'
   edir             = 3
   emaxpos          = 0.95
   eopreg           = 0.05
   eamp             = 0.01
   ntyp             = 2
   nat              = 12
   ibrav            = 0
/
&ELECTRONS
   electron_maxstep = 500
   conv_thr         = 1e-05
   mixing_mode      = 'plain'
   mixing_beta      = 0.1
   mixing_ndim      = 10
/
&IONS
/
&CELL
/

ATOMIC_SPECIES
Os 190.23 Os.pbe-spn-rrkjus_psl.1.0.0.UPF
Hg 200.592 Hg.pbe-n-rrkjus_psl.1.0.0.UPF

K_POINTS automatic
12 12 1  0 0 0

CELL_PARAMETERS alat
5.68136400000000 0.00000000000000 0.00000000000000
-2.84068200000000 5.25371100000000 0.00000000000000
0.00000000000000 0.00000000000000 24.77925100000000

ATOMIC_POSITIONS alat
Os 0.0000000000 0.0000000000 10.0000000000 
Os 2.8406820000 0.0000000000 10.0000000000 
Hg 1.4203410000 2.6268556000 10.0000000000 
Hg -1.4203410000 2.6268556000 10.0000000000 
Os 2.8406820000 1.5359570000 12.3896256000 
Os 0.0000000000 1.5359570000 12.3896256000 
Hg -1.4203410000 4.1628126000 12.3896256000 
Hg 1.4203410000 4.1628126000 12.3896256000 
Os -0.0000366000 2.3075118000 14.5375448000 
Os 2.8407526000 2.3076599000 14.5376998000 
Hg 1.4204620000 5.0157413000 15.4009052000 
Hg -1.4204460000 5.0158377000 15.4008992000 

