&CONTROL
   calculation      = 'scf'
   tstress          = .true.
   tprnfor          = .true.
   outdir           = './Os2Pt2'
   prefix           = 'Os2Pt2_beef'
   pseudo_dir       = '../pseudo'
   tefield          = .true.
   dipfield         = .true.
/
&SYSTEM
   celldm(1)        = 1.889726
   ecutwfc          = 55.123963237125
   ecutrho          = 551.23963237125
   nosym            = .true.
   occupations      = 'smearing'
   degauss          = 0.01D0
   smearing         = 'fd'
   input_dft        = 'BEEF-vdW'
   edir             = 3
   emaxpos          = 0.95
   eopreg           = 0.05
   eamp             = 0.01
   ntyp             = 2
   nat              = 12
   ibrav            = 0
/
&ELECTRONS
   electron_maxstep = 500
   conv_thr         = 1e-05
   mixing_mode      = 'plain'
   mixing_beta      = 0.1
   mixing_ndim      = 10
/
&IONS
/
&CELL
/

ATOMIC_SPECIES
Os 190.23 Os.pbe-spn-rrkjus_psl.1.0.0.UPF
Pt 195.084 Pt.pbe-n-rrkjus_psl.1.0.0.UPF

K_POINTS automatic
12 12 1  0 0 0

CELL_PARAMETERS alat
5.50187200000000 0.00000000000000 0.00000000000000
-2.75093600000000 4.82517700000000 0.00000000000000
0.00000000000000 0.00000000000000 24.52012100000000

ATOMIC_POSITIONS alat
Os 0.0000000000 0.0000000000 10.0000000000 
Os 2.7509358000 0.0000000000 10.0000000000 
Pt 1.3754679000 2.4125883000 10.0000000000 
Pt -1.3754679000 2.4125883000 10.0000000000 
Os 2.7509358000 1.5683670000 12.2600603000 
Os 0.0000000000 1.5683670000 12.2600603000 
Pt -1.3754679000 3.9809553000 12.2600603000 
Pt 1.3754679000 3.9809553000 12.2600603000 
Os 0.0000067000 3.0873722000 14.4194277000 
Os 2.7509511000 3.0873796000 14.4194372000 
Pt 4.1263961000 0.7627775000 14.5230516000 
Pt 1.3754590000 0.7627802000 14.5230513000 

