&CONTROL
   calculation      = 'scf'
   tstress          = .true.
   tprnfor          = .true.
   outdir           = './Pd2Hg2'
   prefix           = 'Pd2Hg2_beef'
   pseudo_dir       = '../pseudo'
   tefield          = .true.
   dipfield         = .true.
/
&SYSTEM
   celldm(1)        = 1.889726
   ecutwfc          = 55.123963237125
   ecutrho          = 551.23963237125
   nosym            = .true.
   occupations      = 'smearing'
   degauss          = 0.01D0
   smearing         = 'fd'
   input_dft        = 'BEEF-vdW'
   edir             = 3
   emaxpos          = 0.95
   eopreg           = 0.05
   eamp             = 0.01
   ntyp             = 2
   nat              = 12
   ibrav            = 0
/
&ELECTRONS
   electron_maxstep = 500
   conv_thr         = 1e-05
   mixing_mode      = 'plain'
   mixing_beta      = 0.1
   mixing_ndim      = 10
/
&IONS
/
&CELL
/

ATOMIC_SPECIES
Pd 106.42 Pd.pbe-n-rrkjus_psl.1.0.0.UPF
Hg 200.592 Hg.pbe-n-rrkjus_psl.1.0.0.UPF

K_POINTS automatic
12 12 1  0 0 0

CELL_PARAMETERS alat
5.86231600000000 0.00000000000000 0.00000000000000
2.53311300000000 5.28678400000000 0.00000000000000
0.00000000000000 0.00000000000000 24.85333800000000

ATOMIC_POSITIONS alat
Pd 0.0000000000 0.0000000000 10.0000000000 
Pd 4.1977142000 2.6433921000 10.0000000000 
Hg 2.9311579000 0.0000000000 10.0000000000 
Hg 1.2665563000 2.6433921000 10.0000000000 
Pd 5.8623158000 3.6916279000 12.4266692000 
Pd 1.6646015000 1.0482358000 12.4266692000 
Hg 2.9311579000 3.6916279000 12.4266692000 
Hg 4.5957594000 1.0482358000 12.4266692000 
Pd 3.3046841000 2.0810258000 14.7221000000 
Pd 7.5023942000 4.7244241000 14.7221004000 
Hg 6.2613334000 2.0970830000 15.0914839000 
Hg 4.5967373000 4.7404808000 15.0914925000 

