&CONTROL
   calculation      = 'scf'
   tstress          = .true.
   tprnfor          = .true.
   outdir           = './Pd2W2'
   prefix           = 'Pd2W2_beef'
   pseudo_dir       = '../pseudo'
   tefield          = .true.
   dipfield         = .true.
/
&SYSTEM
   celldm(1)        = 1.889726
   ecutwfc          = 55.123963237125
   ecutrho          = 551.23963237125
   nosym            = .true.
   occupations      = 'smearing'
   degauss          = 0.01D0
   smearing         = 'fd'
   input_dft        = 'BEEF-vdW'
   edir             = 3
   emaxpos          = 0.95
   eopreg           = 0.05
   eamp             = 0.01
   ntyp             = 2
   nat              = 12
   ibrav            = 0
/
&ELECTRONS
   electron_maxstep = 500
   conv_thr         = 1e-05
   mixing_mode      = 'plain'
   mixing_beta      = 0.1
   mixing_ndim      = 10
/
&IONS
/
&CELL
/

ATOMIC_SPECIES
Pd 106.42 Pd.pbe-n-rrkjus_psl.1.0.0.UPF
W 183.84 W.pbe-spn-rrkjus_psl.0.2.3.UPF

K_POINTS automatic
12 12 1  0 0 0

CELL_PARAMETERS alat
5.46924000000000 0.00000000000000 0.00000000000000
-2.73462000000000 4.98413700000000 0.00000000000000
0.00000000000000 0.00000000000000 24.57251700000000

ATOMIC_POSITIONS alat
Pd 0.0000000000 0.0000000000 10.0000000000 
Pd 2.7346200000 0.0000000000 10.0000000000 
W 1.3673100000 2.4920683000 10.0000000000 
W -1.3673100000 2.4920683000 10.0000000000 
Pd 2.7346200000 1.5003896000 12.2862584000 
Pd 0.0000000000 1.5003896000 12.2862584000 
W -1.3673100000 3.9924579000 12.2862584000 
W 1.3673100000 3.9924579000 12.2862584000 
Pd -0.0000185000 3.1031377000 14.5705153000 
Pd 2.7346038000 3.1031379000 14.5705144000 
W 4.1018947000 0.5478025000 14.4422255000 
W 1.3672755000 0.5478049000 14.4422233000 

