&CONTROL
   calculation      = 'scf'
   tstress          = .true.
   tprnfor          = .true.
   outdir           = './Re2Au2'
   prefix           = 'Re2Au2_beef'
   pseudo_dir       = '../pseudo'
   tefield          = .true.
   dipfield         = .true.
/
&SYSTEM
   celldm(1)        = 1.889726
   ecutwfc          = 55.123963237125
   ecutrho          = 551.23963237125
   nosym            = .true.
   occupations      = 'smearing'
   degauss          = 0.01D0
   smearing         = 'fd'
   input_dft        = 'BEEF-vdW'
   edir             = 3
   emaxpos          = 0.95
   eopreg           = 0.05
   eamp             = 0.01
   ntyp             = 2
   nat              = 12
   ibrav            = 0
/
&ELECTRONS
   electron_maxstep = 500
   conv_thr         = 1e-05
   mixing_mode      = 'plain'
   mixing_beta      = 0.1
   mixing_ndim      = 10
/
&IONS
/
&CELL
/

ATOMIC_SPECIES
Re 186.207 Re.pbe-spn-rrkjus_psl.1.0.0.UPF
Au 196.966569 Au.pbe-n-rrkjus_psl.1.0.0.UPF

K_POINTS automatic
12 12 1  0 0 0

CELL_PARAMETERS alat
5.45297300000000 0.00000000000000 0.00000000000000
-2.72648700000000 5.16591100000000 0.00000000000000
0.00000000000000 0.00000000000000 24.63163800000000

ATOMIC_POSITIONS alat
Re 0.0000000000 0.0000000000 10.0000000000 
Re 2.7264866000 0.0000000000 10.0000000000 
Au 1.3632433000 2.5829553000 10.0000000000 
Au -1.3632433000 2.5829553000 10.0000000000 
Re 2.7264866000 1.4389969000 12.3158189000 
Re 0.0000000000 1.4389969000 12.3158189000 
Au -1.3632433000 4.0219522000 12.3158189000 
Au 1.3632433000 4.0219522000 12.3158189000 
Re -0.0021328000 0.4827974000 14.4739826000 
Re 2.7254112000 0.4824150000 14.4739979000 
Au 1.3597972000 2.9712980000 14.9856210000 
Au -1.3626434000 2.9726392000 14.9857328000 

