&CONTROL
   calculation      = 'scf'
   tstress          = .true.
   tprnfor          = .true.
   outdir           = './Rh2Hf2'
   prefix           = 'Rh2Hf2_beef'
   pseudo_dir       = '../pseudo'
   tefield          = .true.
   dipfield         = .true.
/
&SYSTEM
   celldm(1)        = 1.889726
   ecutwfc          = 55.123963237125
   ecutrho          = 551.23963237125
   nosym            = .true.
   occupations      = 'smearing'
   degauss          = 0.01D0
   smearing         = 'fd'
   input_dft        = 'BEEF-vdW'
   edir             = 3
   emaxpos          = 0.95
   eopreg           = 0.05
   eamp             = 0.01
   ntyp             = 2
   nat              = 12
   ibrav            = 0
/
&ELECTRONS
   electron_maxstep = 500
   conv_thr         = 1e-05
   mixing_mode      = 'plain'
   mixing_beta      = 0.1
   mixing_ndim      = 10
/
&IONS
/
&CELL
/

ATOMIC_SPECIES
Rh 102.9055 Rh.pbe-spn-rrkjus_psl.1.0.0.UPF
Hf 178.49 Hf.pbe-spn-rrkjus_psl.1.0.0.UPF

K_POINTS automatic
12 12 1  0 0 0

CELL_PARAMETERS alat
5.67007900000000 0.00000000000000 0.00000000000000
1.97336600000000 5.31560100000000 0.00000000000000
0.00000000000000 0.00000000000000 24.65255600000000

ATOMIC_POSITIONS alat
Rh 0.0000000000 0.0000000000 10.0000000000 
Rh 3.8217222000 2.6578007000 10.0000000000 
Hf 2.8350393000 0.0000000000 10.0000000000 
Hf 0.9866829000 2.6578007000 10.0000000000 
Rh 5.6700785000 3.9432324000 12.3262781000 
Rh 1.8483563000 1.2854317000 12.3262781000 
Hf 2.8350393000 3.9432324000 12.3262781000 
Hf 4.6833956000 1.2854317000 12.3262781000 
Rh 3.7533754000 2.6102714000 14.4439706000 
Rh 7.5751004000 5.2680698000 14.4439741000 
Hf 6.5926822000 2.6132320000 14.6566396000 
Hf 4.7443275000 5.2710435000 14.6566423000 

