&CONTROL
   calculation      = 'scf'
   tstress          = .true.
   tprnfor          = .true.
   outdir           = './Rh2Ir2'
   prefix           = 'Rh2Ir2_beef'
   pseudo_dir       = '../pseudo'
   tefield          = .true.
   dipfield         = .true.
/
&SYSTEM
   celldm(1)        = 1.889726
   ecutwfc          = 55.123963237125
   ecutrho          = 551.23963237125
   nosym            = .true.
   occupations      = 'smearing'
   degauss          = 0.01D0
   smearing         = 'fd'
   input_dft        = 'BEEF-vdW'
   edir             = 3
   emaxpos          = 0.95
   eopreg           = 0.05
   eamp             = 0.01
   ntyp             = 2
   nat              = 12
   ibrav            = 0
/
&ELECTRONS
   electron_maxstep = 500
   conv_thr         = 1e-05
   mixing_mode      = 'plain'
   mixing_beta      = 0.1
   mixing_ndim      = 10
/
&IONS
/
&CELL
/

ATOMIC_SPECIES
Rh 102.9055 Rh.pbe-spn-rrkjus_psl.1.0.0.UPF
Ir 192.217 Ir.pbe-n-rrkjus_psl.0.2.3.UPF

K_POINTS automatic
12 12 1  0 0 0

CELL_PARAMETERS alat
5.46024100000000 0.00000000000000 0.00000000000000
-2.73012100000000 4.73744400000000 0.00000000000000
0.00000000000000 0.00000000000000 24.46237300000000

ATOMIC_POSITIONS alat
Rh 0.0000000000 0.0000000000 10.0000000000 
Rh 2.7301206000 0.0000000000 10.0000000000 
Ir 1.3650603000 2.3687219000 10.0000000000 
Ir -1.3650603000 2.3687219000 10.0000000000 
Rh 2.7301206000 1.5733291000 12.2311867000 
Rh -0.0000000000 1.5733291000 12.2311867000 
Ir -1.3650603000 3.9420511000 12.2311867000 
Ir 1.3650603000 3.9420511000 12.2311867000 
Rh -0.0000000000 3.1500376000 14.4284240000 
Rh 2.7301201000 3.1500381000 14.4284314000 
Ir 4.0951773000 0.7688252000 14.3893965000 
Ir 1.3650625000 0.7688243000 14.3893978000 

