&CONTROL
   calculation      = 'scf'
   tstress          = .true.
   tprnfor          = .true.
   outdir           = './Rh2Pd2'
   prefix           = 'Rh2Pd2_beef'
   pseudo_dir       = '../pseudo'
   tefield          = .true.
   dipfield         = .true.
/
&SYSTEM
   celldm(1)        = 1.889726
   ecutwfc          = 55.123963237125
   ecutrho          = 551.23963237125
   nosym            = .true.
   occupations      = 'smearing'
   degauss          = 0.01D0
   smearing         = 'fd'
   input_dft        = 'BEEF-vdW'
   edir             = 3
   emaxpos          = 0.95
   eopreg           = 0.05
   eamp             = 0.01
   ntyp             = 2
   nat              = 12
   ibrav            = 0
/
&ELECTRONS
   electron_maxstep = 500
   conv_thr         = 1e-05
   mixing_mode      = 'plain'
   mixing_beta      = 0.1
   mixing_ndim      = 10
/
&IONS
/
&CELL
/

ATOMIC_SPECIES
Rh 102.9055 Rh.pbe-spn-rrkjus_psl.1.0.0.UPF
Pd 106.42 Pd.pbe-n-rrkjus_psl.1.0.0.UPF

K_POINTS automatic
12 12 1  0 0 0

CELL_PARAMETERS alat
5.53570200000000 0.00000000000000 0.00000000000000
2.74773300000000 4.80561700000000 0.00000000000000
0.00000000000000 0.00000000000000 24.52524700000000

ATOMIC_POSITIONS alat
Rh 0.0000000000 0.0000000000 10.0000000000 
Rh 4.1417174000 2.4028085000 10.0000000000 
Pd 2.7678508000 0.0000000000 10.0000000000 
Pd 1.3738666000 2.4028085000 10.0000000000 
Rh 5.5357016000 3.2115254000 12.2626236000 
Rh 1.3939842000 0.8087169000 12.2626236000 
Pd 2.7678508000 3.2115254000 12.2626236000 
Pd 4.1618350000 0.8087169000 12.2626236000 
Rh 2.7116040000 1.5731345000 14.4409824000 
Rh 6.8532934000 3.9759213000 14.4408137000 
Pd 5.5040885000 1.5873885000 14.5738455000 
Pd 4.1100822000 3.9902469000 14.5738413000 

