&CONTROL
   calculation      = 'scf'
   tstress          = .true.
   tprnfor          = .true.
   outdir           = './Rh2W2'
   prefix           = 'Rh2W2_beef'
   pseudo_dir       = '../pseudo'
   tefield          = .true.
   dipfield         = .true.
/
&SYSTEM
   celldm(1)        = 1.889726
   ecutwfc          = 55.123963237125
   ecutrho          = 551.23963237125
   nosym            = .true.
   occupations      = 'smearing'
   degauss          = 0.01D0
   smearing         = 'fd'
   input_dft        = 'BEEF-vdW'
   edir             = 3
   emaxpos          = 0.95
   eopreg           = 0.05
   eamp             = 0.01
   ntyp             = 2
   nat              = 12
   ibrav            = 0
/
&ELECTRONS
   electron_maxstep = 500
   conv_thr         = 1e-05
   mixing_mode      = 'plain'
   mixing_beta      = 0.1
   mixing_ndim      = 10
/
&IONS
/
&CELL
/

ATOMIC_SPECIES
Rh 102.9055 Rh.pbe-spn-rrkjus_psl.1.0.0.UPF
W 183.84 W.pbe-spn-rrkjus_psl.0.2.3.UPF

K_POINTS automatic
12 12 1  0 0 0

CELL_PARAMETERS alat
5.52043900000000 0.00000000000000 0.00000000000000
-2.76021900000000 4.81375000000000 0.00000000000000
0.00000000000000 0.00000000000000 24.52274900000000

ATOMIC_POSITIONS alat
Rh 0.0000000000 0.0000000000 10.0000000000 
Rh 2.7602194000 0.0000000000 10.0000000000 
W 1.3801097000 2.4068752000 10.0000000000 
W -1.3801097000 2.4068752000 10.0000000000 
Rh 2.7602194000 1.5827184000 12.2613743000 
Rh 0.0000000000 1.5827184000 12.2613743000 
W -1.3801097000 3.9895936000 12.2613743000 
W 1.3801097000 3.9895936000 12.2613743000 
Rh 0.0000016000 3.2451610000 14.4678511000 
Rh 2.7602175000 3.2451619000 14.4678510000 
W 4.1403286000 0.7881886000 14.4086920000 
W 1.3801082000 0.7881899000 14.4086923000 

