&CONTROL
   calculation      = 'scf'
   tstress          = .true.
   tprnfor          = .true.
   outdir           = './Ru2Au2'
   prefix           = 'Ru2Au2_beef'
   pseudo_dir       = '../pseudo'
   tefield          = .true.
   dipfield         = .true.
/
&SYSTEM
   celldm(1)        = 1.889726
   ecutwfc          = 55.123963237125
   ecutrho          = 551.23963237125
   nosym            = .true.
   occupations      = 'smearing'
   degauss          = 0.01D0
   smearing         = 'fd'
   input_dft        = 'BEEF-vdW'
   edir             = 3
   emaxpos          = 0.95
   eopreg           = 0.05
   eamp             = 0.01
   ntyp             = 2
   nat              = 12
   ibrav            = 0
/
&ELECTRONS
   electron_maxstep = 500
   conv_thr         = 1e-05
   mixing_mode      = 'plain'
   mixing_beta      = 0.1
   mixing_ndim      = 10
/
&IONS
/
&CELL
/

ATOMIC_SPECIES
Ru 101.07 Ru.pbe-spn-rrkjus_psl.1.0.0.UPF
Au 196.966569 Au.pbe-n-rrkjus_psl.1.0.0.UPF

K_POINTS automatic
12 12 1  0 0 0

CELL_PARAMETERS alat
5.57014400000000 0.00000000000000 0.00000000000000
-2.78507200000000 4.97938000000000 0.00000000000000
0.00000000000000 0.00000000000000 24.61737700000000

ATOMIC_POSITIONS alat
Ru 0.0000000000 0.0000000000 10.0000000000 
Ru 2.7850719000 0.0000000000 10.0000000000 
Au 1.3925359000 2.4896899000 10.0000000000 
Au -1.3925359000 2.4896899000 10.0000000000 
Ru 2.7850719000 1.5577493000 12.3086885000 
Ru -0.0000000000 1.5577493000 12.3086885000 
Au -1.3925359000 4.0474392000 12.3086885000 
Au 1.3925359000 4.0474392000 12.3086885000 
Ru 0.0000374000 0.7227463000 14.4379532000 
Ru 2.7850716000 0.7226225000 14.4379986000 
Au 1.3925952000 3.1501507000 14.9887392000 
Au -1.3925325000 3.1501201000 14.9887439000 

