&CONTROL
   calculation      = 'scf'
   tstress          = .true.
   tprnfor          = .true.
   outdir           = './Ru2Cd2'
   prefix           = 'Ru2Cd2_beef'
   pseudo_dir       = '../pseudo'
   tefield          = .true.
   dipfield         = .true.
/
&SYSTEM
   celldm(1)        = 1.889726
   ecutwfc          = 55.123963237125
   ecutrho          = 551.23963237125
   nosym            = .true.
   occupations      = 'smearing'
   degauss          = 0.01D0
   smearing         = 'fd'
   input_dft        = 'BEEF-vdW'
   edir             = 3
   emaxpos          = 0.95
   eopreg           = 0.05
   eamp             = 0.01
   ntyp             = 2
   nat              = 12
   ibrav            = 0
/
&ELECTRONS
   electron_maxstep = 500
   conv_thr         = 1e-05
   mixing_mode      = 'plain'
   mixing_beta      = 0.1
   mixing_ndim      = 10
/
&IONS
/
&CELL
/

ATOMIC_SPECIES
Ru 101.07 Ru.pbe-spn-rrkjus_psl.1.0.0.UPF
Cd 112.414 Cd.pbe-n-rrkjus_psl.1.0.0.UPF

K_POINTS automatic
12 12 1  0 0 0

CELL_PARAMETERS alat
5.67852500000000 0.00000000000000 0.00000000000000
-2.83926200000000 5.12484600000000 0.00000000000000
0.00000000000000 0.00000000000000 24.72739500000000

ATOMIC_POSITIONS alat
Ru 0.0000000000 0.0000000000 10.0000000000 
Ru 2.8392624000 0.0000000000 10.0000000000 
Cd 1.4196312000 2.5624231000 10.0000000000 
Cd -1.4196312000 2.5624231000 10.0000000000 
Ru 2.8392624000 1.5730054000 12.3636973000 
Ru -0.0000000000 1.5730054000 12.3636973000 
Cd -1.4196312000 4.1354285000 12.3636973000 
Cd 1.4196312000 4.1354285000 12.3636973000 
Ru -0.0000131000 2.5271498000 14.4536012000 
Ru 2.8392676000 2.5271345000 14.4536082000 
Cd 4.2588960000 0.0575378000 15.1296681000 
Cd 1.4196297000 0.0575616000 15.1296656000 

