&CONTROL
   calculation      = 'scf'
   tstress          = .true.
   tprnfor          = .true.
   outdir           = './Ru2Hf2'
   prefix           = 'Ru2Hf2_beef'
   pseudo_dir       = '../pseudo'
   tefield          = .true.
   dipfield         = .true.
/
&SYSTEM
   celldm(1)        = 1.889726
   ecutwfc          = 55.123963237125
   ecutrho          = 551.23963237125
   nosym            = .true.
   occupations      = 'smearing'
   degauss          = 0.01D0
   smearing         = 'fd'
   input_dft        = 'BEEF-vdW'
   edir             = 3
   emaxpos          = 0.95
   eopreg           = 0.05
   eamp             = 0.01
   ntyp             = 2
   nat              = 12
   ibrav            = 0
/
&ELECTRONS
   electron_maxstep = 500
   conv_thr         = 1e-05
   mixing_mode      = 'plain'
   mixing_beta      = 0.1
   mixing_ndim      = 10
/
&IONS
/
&CELL
/

ATOMIC_SPECIES
Ru 101.07 Ru.pbe-spn-rrkjus_psl.1.0.0.UPF
Hf 178.49 Hf.pbe-spn-rrkjus_psl.1.0.0.UPF

K_POINTS automatic
12 12 1  0 0 0

CELL_PARAMETERS alat
5.59323600000000 0.00000000000000 0.00000000000000
1.77821800000000 5.30304000000000 0.00000000000000
0.00000000000000 0.00000000000000 24.53759600000000

ATOMIC_POSITIONS alat
Ru 0.0000000000 0.0000000000 10.0000000000 
Ru 3.6857273000 2.6515200000 10.0000000000 
Hf 2.7966182000 0.0000000000 10.0000000000 
Hf 0.8891091000 2.6515200000 10.0000000000 
Ru 5.5932364000 4.0237862000 12.2687979000 
Ru 1.9075092000 1.3722661000 12.2687979000 
Hf 2.7966182000 4.0237862000 12.2687979000 
Hf 4.7041274000 1.3722661000 12.2687979000 
Ru 3.7568831000 2.7027104000 14.4246782000 
Ru 0.0711555000 0.0511872000 14.4246699000 
Hf 0.9539751000 2.6981850000 14.5863432000 
Hf 2.8614878000 0.0466667000 14.5863462000 

