&CONTROL
   calculation      = 'scf'
   tstress          = .true.
   tprnfor          = .true.
   outdir           = './Ru2Ir2'
   prefix           = 'Ru2Ir2_beef'
   pseudo_dir       = '../pseudo'
   tefield          = .true.
   dipfield         = .true.
/
&SYSTEM
   celldm(1)        = 1.889726
   ecutwfc          = 55.123963237125
   ecutrho          = 551.23963237125
   nosym            = .true.
   occupations      = 'smearing'
   degauss          = 0.01D0
   smearing         = 'fd'
   input_dft        = 'BEEF-vdW'
   edir             = 3
   emaxpos          = 0.95
   eopreg           = 0.05
   eamp             = 0.01
   ntyp             = 2
   nat              = 12
   ibrav            = 0
/
&ELECTRONS
   electron_maxstep = 500
   conv_thr         = 1e-05
   mixing_mode      = 'plain'
   mixing_beta      = 0.1
   mixing_ndim      = 10
/
&IONS
/
&CELL
/

ATOMIC_SPECIES
Ru 101.07 Ru.pbe-spn-rrkjus_psl.1.0.0.UPF
Ir 192.217 Ir.pbe-n-rrkjus_psl.0.2.3.UPF

K_POINTS automatic
12 12 1  0 0 0

CELL_PARAMETERS alat
5.43623100000000 0.00000000000000 0.00000000000000
-2.71811600000000 4.71806900000000 0.00000000000000
0.00000000000000 0.00000000000000 24.44343300000000

ATOMIC_POSITIONS alat
Ru 0.0000000000 0.0000000000 10.0000000000 
Ru 2.7181156000 0.0000000000 10.0000000000 
Ir 1.3590578000 2.3590344000 10.0000000000 
Ir -1.3590578000 2.3590344000 10.0000000000 
Ru 2.7181156000 1.5659272000 12.2217165000 
Ru 0.0000000000 1.5659272000 12.2217165000 
Ir -1.3590578000 3.9249616000 12.2217165000 
Ir 1.3590578000 3.9249616000 12.2217165000 
Ru -0.0000004000 3.1137769000 14.3740738000 
Ru 2.7181163000 3.1137726000 14.3740693000 
Ir 4.0771712000 0.7970495000 14.3578939000 
Ir 1.3590611000 0.7970500000 14.3578933000 

