&CONTROL
   calculation      = 'scf'
   tstress          = .true.
   tprnfor          = .true.
   outdir           = './Ru2Pt2'
   prefix           = 'Ru2Pt2_beef'
   pseudo_dir       = '../pseudo'
   tefield          = .true.
   dipfield         = .true.
/
&SYSTEM
   celldm(1)        = 1.889726
   ecutwfc          = 55.123963237125
   ecutrho          = 551.23963237125
   nosym            = .true.
   occupations      = 'smearing'
   degauss          = 0.01D0
   smearing         = 'fd'
   input_dft        = 'BEEF-vdW'
   edir             = 3
   emaxpos          = 0.95
   eopreg           = 0.05
   eamp             = 0.01
   ntyp             = 2
   nat              = 12
   ibrav            = 0
/
&ELECTRONS
   electron_maxstep = 500
   conv_thr         = 1e-05
   mixing_mode      = 'plain'
   mixing_beta      = 0.1
   mixing_ndim      = 10
/
&IONS
/
&CELL
/

ATOMIC_SPECIES
Ru 101.07 Ru.pbe-spn-rrkjus_psl.1.0.0.UPF
Pt 195.084 Pt.pbe-n-rrkjus_psl.1.0.0.UPF

K_POINTS automatic
12 12 1  0 0 0

CELL_PARAMETERS alat
5.49303000000000 0.00000000000000 0.00000000000000
-2.74651500000000 4.79326900000000 0.00000000000000
0.00000000000000 0.00000000000000 24.50186500000000

ATOMIC_POSITIONS alat
Ru 0.0000000000 0.0000000000 10.0000000000 
Ru 2.7465149000 0.0000000000 10.0000000000 
Pt 1.3732575000 2.3966344000 10.0000000000 
Pt -1.3732575000 2.3966344000 10.0000000000 
Ru 2.7465149000 1.5737369000 12.2509323000 
Ru -0.0000000000 1.5737369000 12.2509323000 
Pt -1.3732575000 3.9703714000 12.2509323000 
Pt 1.3732575000 3.9703714000 12.2509323000 
Ru 0.0000009000 3.1210365000 14.4179605000 
Ru 2.7465145000 3.1210320000 14.4180104000 
Pt 4.1197762000 0.7931768000 14.5005312000 
Pt 1.3732536000 0.7931768000 14.5005312000 

