&CONTROL
   calculation      = 'scf'
   tstress          = .true.
   tprnfor          = .true.
   outdir           = './Ru2Rh2'
   prefix           = 'Ru2Rh2_beef'
   pseudo_dir       = '../pseudo'
   tefield          = .true.
   dipfield         = .true.
/
&SYSTEM
   celldm(1)        = 1.889726
   ecutwfc          = 55.123963237125
   ecutrho          = 551.23963237125
   nosym            = .true.
   occupations      = 'smearing'
   degauss          = 0.01D0
   smearing         = 'fd'
   input_dft        = 'BEEF-vdW'
   edir             = 3
   emaxpos          = 0.95
   eopreg           = 0.05
   eamp             = 0.01
   ntyp             = 2
   nat              = 12
   ibrav            = 0
/
&ELECTRONS
   electron_maxstep = 500
   conv_thr         = 1e-05
   mixing_mode      = 'plain'
   mixing_beta      = 0.1
   mixing_ndim      = 10
/
&IONS
/
&CELL
/

ATOMIC_SPECIES
Ru 101.07 Ru.pbe-spn-rrkjus_psl.1.0.0.UPF
Rh 102.9055 Rh.pbe-spn-rrkjus_psl.1.0.0.UPF

K_POINTS automatic
12 12 1  0 0 0

CELL_PARAMETERS alat
5.39817500000000 0.00000000000000 0.00000000000000
-2.69908800000000 4.71967700000000 0.00000000000000
0.00000000000000 0.00000000000000 24.42832500000000

ATOMIC_POSITIONS alat
Ru 0.0000000000 0.0000000000 10.0000000000 
Ru 2.6990876000 0.0000000000 10.0000000000 
Rh 1.3495438000 2.3598384000 10.0000000000 
Rh -1.3495438000 2.3598384000 10.0000000000 
Ru 2.6990876000 1.5435535000 12.2141626000 
Ru 0.0000000000 1.5435535000 12.2141626000 
Rh -1.3495438000 3.9033919000 12.2141626000 
Rh 1.3495438000 3.9033919000 12.2141626000 
Ru 0.0000006000 3.0630830000 14.3440244000 
Ru 2.6990873000 3.0630970000 14.3440869000 
Rh 4.0486304000 0.7650535000 14.3565318000 
Rh 1.3495453000 0.7650535000 14.3565308000 

