&CONTROL
   calculation      = 'scf'
   tstress          = .true.
   tprnfor          = .true.
   outdir           = './Ru2Ta2'
   prefix           = 'Ru2Ta2_beef'
   pseudo_dir       = '../pseudo'
   tefield          = .true.
   dipfield         = .true.
/
&SYSTEM
   celldm(1)        = 1.889726
   ecutwfc          = 55.123963237125
   ecutrho          = 551.23963237125
   nosym            = .true.
   occupations      = 'smearing'
   degauss          = 0.01D0
   smearing         = 'fd'
   input_dft        = 'BEEF-vdW'
   edir             = 3
   emaxpos          = 0.95
   eopreg           = 0.05
   eamp             = 0.01
   ntyp             = 2
   nat              = 12
   ibrav            = 0
/
&ELECTRONS
   electron_maxstep = 500
   conv_thr         = 1e-05
   mixing_mode      = 'plain'
   mixing_beta      = 0.1
   mixing_ndim      = 10
/
&IONS
/
&CELL
/

ATOMIC_SPECIES
Ru 101.07 Ru.pbe-spn-rrkjus_psl.1.0.0.UPF
Ta 180.94788 Ta.pbe-spfn-rrkjus_psl.1.0.0.UPF

K_POINTS automatic
12 12 1  0 0 0

CELL_PARAMETERS alat
5.51891200000000 0.00000000000000 0.00000000000000
2.12922000000000 5.09164100000000 0.00000000000000
0.00000000000000 0.00000000000000 24.56425000000000

ATOMIC_POSITIONS alat
Ru 0.0000000000 0.0000000000 10.0000000000 
Ru 3.8240662000 2.5458207000 10.0000000000 
Ta 2.7594561000 0.0000000000 10.0000000000 
Ta 1.0646101000 2.5458207000 10.0000000000 
Ru 5.5189121000 3.6741416000 12.2821251000 
Ru 1.6948459000 1.1283209000 12.2821251000 
Ta 2.7594561000 3.6741416000 12.2821251000 
Ta 4.4543020000 1.1283209000 12.2821251000 
Ru 3.6267156000 2.4144356000 14.3738670000 
Ru 7.4507824000 4.9602589000 14.3738656000 
Ta 6.3816326000 2.4114143000 14.5475929000 
Ta 4.6867883000 4.9572371000 14.5475933000 

