&CONTROL
   calculation      = 'scf'
   tstress          = .true.
   tprnfor          = .true.
   outdir           = './Ru2Y2'
   prefix           = 'Ru2Y2_beef'
   pseudo_dir       = '../pseudo'
   tefield          = .true.
   dipfield         = .true.
/
&SYSTEM
   celldm(1)        = 1.889726
   ecutwfc          = 55.123963237125
   ecutrho          = 551.23963237125
   nosym            = .true.
   occupations      = 'smearing'
   degauss          = 0.01D0
   smearing         = 'fd'
   input_dft        = 'BEEF-vdW'
   edir             = 3
   emaxpos          = 0.95
   eopreg           = 0.05
   eamp             = 0.01
   ntyp             = 2
   nat              = 12
   ibrav            = 0
/
&ELECTRONS
   electron_maxstep = 500
   conv_thr         = 1e-05
   mixing_mode      = 'plain'
   mixing_beta      = 0.1
   mixing_ndim      = 10
/
&IONS
/
&CELL
/

ATOMIC_SPECIES
Ru 101.07 Ru.pbe-spn-rrkjus_psl.1.0.0.UPF
Y 88.90584 Y.pbe-spn-rrkjus_psl.1.0.0.UPF

K_POINTS automatic
12 12 1  0 0 0

CELL_PARAMETERS alat
5.91680700000000 0.00000000000000 0.00000000000000
1.96643700000000 5.58047800000000 0.00000000000000
0.00000000000000 0.00000000000000 24.82925500000000

ATOMIC_POSITIONS alat
Ru 0.0000000000 0.0000000000 10.0000000000 
Ru 3.9416221000 2.7902388000 10.0000000000 
Y 2.9584035000 0.0000000000 10.0000000000 
Y 0.9832186000 2.7902388000 10.0000000000 
Ru 5.9168071000 4.1884545000 12.4146275000 
Ru 1.9751849000 1.3982156000 12.4146275000 
Y 2.9584035000 4.1884545000 12.4146275000 
Y 4.9335885000 1.3982156000 12.4146275000 
Ru 3.9503637000 2.7964301000 14.6878976000 
Ru 0.0087642000 0.0061940000 14.6879352000 
Y 0.9888587000 2.7942262000 14.8649064000 
Y 2.9640451000 0.0039946000 14.8649150000 

