&CONTROL
   calculation      = 'scf'
   tstress          = .true.
   tprnfor          = .true.
   outdir           = './Sc2Mo2'
   prefix           = 'Sc2Mo2_beef'
   pseudo_dir       = '../pseudo'
   tefield          = .true.
   dipfield         = .true.
/
&SYSTEM
   celldm(1)        = 1.889726
   ecutwfc          = 55.123963237125
   ecutrho          = 551.23963237125
   nosym            = .true.
   occupations      = 'smearing'
   degauss          = 0.01D0
   smearing         = 'fd'
   input_dft        = 'BEEF-vdW'
   edir             = 3
   emaxpos          = 0.95
   eopreg           = 0.05
   eamp             = 0.01
   ntyp             = 2
   nat              = 12
   ibrav            = 0
/
&ELECTRONS
   electron_maxstep = 500
   conv_thr         = 1e-05
   mixing_mode      = 'plain'
   mixing_beta      = 0.1
   mixing_ndim      = 10
/
&IONS
/
&CELL
/

ATOMIC_SPECIES
Sc 44.955908 Sc.pbe-spn-rrkjus_psl.1.0.0.UPF
Mo 95.95 Mo.pbe-spn-rrkjus_psl.1.0.0.UPF

K_POINTS automatic
12 12 1  0 0 0

CELL_PARAMETERS alat
5.59702900000000 0.00000000000000 0.00000000000000
-2.79851500000000 5.46680800000000 0.00000000000000
0.00000000000000 0.00000000000000 24.80806600000000

ATOMIC_POSITIONS alat
Sc 0.0000000000 0.0000000000 10.0000000000 
Sc 2.7985146000 0.0000000000 10.0000000000 
Mo 1.3992573000 2.7334041000 10.0000000000 
Mo -1.3992573000 2.7334041000 10.0000000000 
Sc 2.7985146000 1.4325881000 12.4040332000 
Sc 0.0000000000 1.4325881000 12.4040332000 
Mo -1.3992573000 4.1659922000 12.4040332000 
Mo 1.3992573000 4.1659922000 12.4040332000 
Sc 0.0000062000 2.9526305000 14.9625113000 
Sc 2.7985051000 2.9526282000 14.9625072000 
Mo 4.1977728000 0.0494052000 14.5275462000 
Mo 1.3992573000 0.0494048000 14.5275604000 

