&CONTROL
   calculation      = 'scf'
   tstress          = .true.
   tprnfor          = .true.
   outdir           = './Sc2Pt2'
   prefix           = 'Sc2Pt2_beef'
   pseudo_dir       = '../pseudo'
   tefield          = .true.
   dipfield         = .true.
/
&SYSTEM
   celldm(1)        = 1.889726
   ecutwfc          = 55.123963237125
   ecutrho          = 551.23963237125
   nosym            = .true.
   occupations      = 'smearing'
   degauss          = 0.01D0
   smearing         = 'fd'
   input_dft        = 'BEEF-vdW'
   edir             = 3
   emaxpos          = 0.95
   eopreg           = 0.05
   eamp             = 0.01
   ntyp             = 2
   nat              = 12
   ibrav            = 0
/
&ELECTRONS
   electron_maxstep = 500
   conv_thr         = 1e-05
   mixing_mode      = 'plain'
   mixing_beta      = 0.1
   mixing_ndim      = 10
/
&IONS
/
&CELL
/

ATOMIC_SPECIES
Sc 44.955908 Sc.pbe-spn-rrkjus_psl.1.0.0.UPF
Pt 195.084 Pt.pbe-n-rrkjus_psl.1.0.0.UPF

K_POINTS automatic
12 12 1  0 0 0

CELL_PARAMETERS alat
5.73310000000000 0.00000000000000 0.00000000000000
1.93774700000000 5.39569900000000 0.00000000000000
0.00000000000000 0.00000000000000 24.68897300000000

ATOMIC_POSITIONS alat
Sc 0.0000000000 0.0000000000 10.0000000000 
Sc 3.8354237000 2.6978497000 10.0000000000 
Pt 2.8665500000 0.0000000000 10.0000000000 
Pt 0.9688736000 2.6978497000 10.0000000000 
Sc 5.7331001000 4.0326816000 12.3444865000 
Sc 1.8976764000 1.3348319000 12.3444865000 
Pt 2.8665500000 4.0326816000 12.3444865000 
Pt 4.7642265000 1.3348319000 12.3444865000 
Sc 3.8047961000 2.6763029000 14.6918402000 
Sc 7.6402186000 5.3741575000 14.6918438000 
Pt 6.6717344000 2.6765768000 14.4871671000 
Pt 4.7740517000 5.3744236000 14.4871641000 

