&CONTROL
   calculation      = 'scf'
   tstress          = .true.
   tprnfor          = .true.
   outdir           = './Sc2Pd2'
   prefix           = 'Sc2Pd2_beef'
   pseudo_dir       = '../pseudo'
   tefield          = .true.
   dipfield         = .true.
/
&SYSTEM
   celldm(1)        = 1.889726
   ecutwfc          = 55.123963237125
   ecutrho          = 551.23963237125
   nosym            = .true.
   occupations      = 'smearing'
   degauss          = 0.01D0
   smearing         = 'fd'
   input_dft        = 'BEEF-vdW'
   edir             = 3
   emaxpos          = 0.95
   eopreg           = 0.05
   eamp             = 0.01
   ntyp             = 2
   nat              = 12
   ibrav            = 0
/
&ELECTRONS
   electron_maxstep = 500
   conv_thr         = 1e-05
   mixing_mode      = 'plain'
   mixing_beta      = 0.1
   mixing_ndim      = 10
/
&IONS
/
&CELL
/

ATOMIC_SPECIES
Sc 44.955908 Sc.pbe-spn-rrkjus_psl.1.0.0.UPF
Pd 106.42 Pd.pbe-n-rrkjus_psl.1.0.0.UPF

K_POINTS automatic
12 12 1  0 0 0

CELL_PARAMETERS alat
5.76185600000000 0.00000000000000 0.00000000000000
1.93932700000000 5.42568000000000 0.00000000000000
0.00000000000000 0.00000000000000 24.71013500000000

ATOMIC_POSITIONS alat
Sc 0.0000000000 0.0000000000 10.0000000000 
Sc 3.8505913000 2.7128398000 10.0000000000 
Pd 2.8809281000 0.0000000000 10.0000000000 
Pd 0.9696633000 2.7128398000 10.0000000000 
Sc 5.7618561000 4.0593745000 12.3550677000 
Sc 1.9112648000 1.3465348000 12.3550677000 
Pd 2.8809281000 4.0593745000 12.3550677000 
Pd 4.7921928000 1.3465348000 12.3550677000 
Sc 3.8283331000 2.6971745000 14.7046722000 
Sc 7.6789317000 5.4099920000 14.7046692000 
Pd 6.7085222000 2.6966433000 14.5105664000 
Pd 4.7972477000 5.4094663000 14.5105513000 

