&CONTROL
   calculation      = 'scf'
   tstress          = .true.
   tprnfor          = .true.
   outdir           = './Sc2Ru2'
   prefix           = 'Sc2Ru2_beef'
   pseudo_dir       = '../pseudo'
   tefield          = .true.
   dipfield         = .true.
/
&SYSTEM
   celldm(1)        = 1.889726
   ecutwfc          = 55.123963237125
   ecutrho          = 551.23963237125
   nosym            = .true.
   occupations      = 'smearing'
   degauss          = 0.01D0
   smearing         = 'fd'
   input_dft        = 'BEEF-vdW'
   edir             = 3
   emaxpos          = 0.95
   eopreg           = 0.05
   eamp             = 0.01
   ntyp             = 2
   nat              = 12
   ibrav            = 0
/
&ELECTRONS
   electron_maxstep = 500
   conv_thr         = 1e-05
   mixing_mode      = 'plain'
   mixing_beta      = 0.1
   mixing_ndim      = 10
/
&IONS
/
&CELL
/

ATOMIC_SPECIES
Sc 44.955908 Sc.pbe-spn-rrkjus_psl.1.0.0.UPF
Ru 101.07 Ru.pbe-spn-rrkjus_psl.1.0.0.UPF

K_POINTS automatic
12 12 1  0 0 0

CELL_PARAMETERS alat
5.56953300000000 0.00000000000000 0.00000000000000
1.84188300000000 5.25615500000000 0.00000000000000
0.00000000000000 0.00000000000000 24.54294400000000

ATOMIC_POSITIONS alat
Sc 0.0000000000 0.0000000000 10.0000000000 
Sc 3.7057080000 2.6280773000 10.0000000000 
Ru 2.7847664000 0.0000000000 10.0000000000 
Ru 0.9209416000 2.6280773000 10.0000000000 
Sc 5.5695328000 3.9498964000 12.2714719000 
Sc 1.8638248000 1.3218191000 12.2714719000 
Ru 2.7847664000 3.9498964000 12.2714719000 
Ru 4.6485912000 1.3218191000 12.2714719000 
Sc 3.7213126000 2.6391437000 14.5276606000 
Sc 0.0156146000 0.0110699000 14.5276635000 
Ru 0.9399342000 2.6415449000 14.4618443000 
Ru 2.8037570000 0.0134684000 14.4618485000 

