&CONTROL
   calculation      = 'scf'
   tstress          = .true.
   tprnfor          = .true.
   outdir           = './Sc2Rh2'
   prefix           = 'Sc2Rh2_beef'
   pseudo_dir       = '../pseudo'
   tefield          = .true.
   dipfield         = .true.
/
&SYSTEM
   celldm(1)        = 1.889726
   ecutwfc          = 55.123963237125
   ecutrho          = 551.23963237125
   nosym            = .true.
   occupations      = 'smearing'
   degauss          = 0.01D0
   smearing         = 'fd'
   input_dft        = 'BEEF-vdW'
   edir             = 3
   emaxpos          = 0.95
   eopreg           = 0.05
   eamp             = 0.01
   ntyp             = 2
   nat              = 12
   ibrav            = 0
/
&ELECTRONS
   electron_maxstep = 500
   conv_thr         = 1e-05
   mixing_mode      = 'plain'
   mixing_beta      = 0.1
   mixing_ndim      = 10
/
&IONS
/
&CELL
/

ATOMIC_SPECIES
Sc 44.955908 Sc.pbe-spn-rrkjus_psl.1.0.0.UPF
Rh 102.9055 Rh.pbe-spn-rrkjus_psl.1.0.0.UPF

K_POINTS automatic
12 12 1  0 0 0

CELL_PARAMETERS alat
5.60630500000000 0.00000000000000 0.00000000000000
1.87452400000000 5.28363600000000 0.00000000000000
0.00000000000000 0.00000000000000 24.57927800000000

ATOMIC_POSITIONS alat
Sc 0.0000000000 0.0000000000 10.0000000000 
Sc 3.7404145000 2.6418180000 10.0000000000 
Rh 2.8031523000 0.0000000000 10.0000000000 
Rh 0.9372622000 2.6418180000 10.0000000000 
Sc 5.6063046000 3.9596779000 12.2896392000 
Sc 1.8658901000 1.3178598000 12.2896392000 
Rh 2.8031523000 3.9596779000 12.2896392000 
Rh 4.6690424000 1.3178598000 12.2896392000 
Sc 3.7335535000 2.6369289000 14.6301085000 
Sc 7.4739189000 5.2787981000 14.6301056000 
Rh 6.5359664000 2.6364430000 14.4446095000 
Rh 4.6700920000 5.2782861000 14.4446108000 

