&CONTROL
   calculation      = 'scf'
   tstress          = .true.
   tprnfor          = .true.
   outdir           = './Sc2Tc2'
   prefix           = 'Sc2Tc2_beef'
   pseudo_dir       = '../pseudo'
   tefield          = .true.
   dipfield         = .true.
/
&SYSTEM
   celldm(1)        = 1.889726
   ecutwfc          = 55.123963237125
   ecutrho          = 551.23963237125
   nosym            = .true.
   occupations      = 'smearing'
   degauss          = 0.01D0
   smearing         = 'fd'
   input_dft        = 'BEEF-vdW'
   edir             = 3
   emaxpos          = 0.95
   eopreg           = 0.05
   eamp             = 0.01
   ntyp             = 2
   nat              = 12
   ibrav            = 0
/
&ELECTRONS
   electron_maxstep = 500
   conv_thr         = 1e-05
   mixing_mode      = 'plain'
   mixing_beta      = 0.1
   mixing_ndim      = 10
/
&IONS
/
&CELL
/

ATOMIC_SPECIES
Sc 44.955908 Sc.pbe-spn-rrkjus_psl.1.0.0.UPF
Tc 97.90721 Tc.pbe-spn-rrkjus_psl.0.3.0.UPF

K_POINTS automatic
12 12 1  0 0 0

CELL_PARAMETERS alat
5.59399300000000 0.00000000000000 0.00000000000000
1.77793000000000 5.30393400000000 0.00000000000000
0.00000000000000 0.00000000000000 24.53801200000000

ATOMIC_POSITIONS alat
Sc 0.0000000000 0.0000000000 10.0000000000 
Sc 3.6859617000 2.6519672000 10.0000000000 
Tc 2.7969965000 0.0000000000 10.0000000000 
Tc 0.8889652000 2.6519672000 10.0000000000 
Sc 5.5939930000 4.0247532000 12.2690061000 
Sc 1.9080313000 1.3727859000 12.2690061000 
Tc 2.7969965000 4.0247532000 12.2690061000 
Tc 4.7050277000 1.3727859000 12.2690061000 
Sc 3.7506261000 2.6986118000 14.5711078000 
Sc 0.0647729000 0.0464846000 14.5711166000 
Tc 0.9580628000 2.7016754000 14.4681622000 
Tc 2.8661577000 0.0497675000 14.4682717000 

