&CONTROL
   calculation      = 'scf'
   tstress          = .true.
   tprnfor          = .true.
   outdir           = './Sc2W2'
   prefix           = 'Sc2W2_beef'
   pseudo_dir       = '../pseudo'
   tefield          = .true.
   dipfield         = .true.
/
&SYSTEM
   celldm(1)        = 1.889726
   ecutwfc          = 55.123963237125
   ecutrho          = 551.23963237125
   nosym            = .true.
   occupations      = 'smearing'
   degauss          = 0.01D0
   smearing         = 'fd'
   input_dft        = 'BEEF-vdW'
   edir             = 3
   emaxpos          = 0.95
   eopreg           = 0.05
   eamp             = 0.01
   ntyp             = 2
   nat              = 12
   ibrav            = 0
/
&ELECTRONS
   electron_maxstep = 500
   conv_thr         = 1e-05
   mixing_mode      = 'plain'
   mixing_beta      = 0.1
   mixing_ndim      = 10
/
&IONS
/
&CELL
/

ATOMIC_SPECIES
Sc 44.955908 Sc.pbe-spn-rrkjus_psl.1.0.0.UPF
W 183.84 W.pbe-spn-rrkjus_psl.0.2.3.UPF

K_POINTS automatic
12 12 1  0 0 0

CELL_PARAMETERS alat
5.56825200000000 0.00000000000000 0.00000000000000
-2.78412600000000 5.50729600000000 0.00000000000000
0.00000000000000 0.00000000000000 24.80432500000000

ATOMIC_POSITIONS alat
Sc 0.0000000000 0.0000000000 10.0000000000 
Sc 2.7841259000 0.0000000000 10.0000000000 
W 1.3920630000 2.7536481000 10.0000000000 
W -1.3920630000 2.7536481000 10.0000000000 
Sc 2.7841259000 1.4074705000 12.4021623000 
Sc 0.0000000000 1.4074705000 12.4021623000 
W -1.3920630000 4.1611186000 12.4021623000 
W 1.3920630000 4.1611186000 12.4021623000 
Sc 0.0000030000 2.9083377000 14.9500631000 
Sc 2.7841278000 2.9083313000 14.9500424000 
W 4.1761872000 0.0266378000 14.5758848000 
W 1.3920637000 0.0266378000 14.5758946000 

