&CONTROL
   calculation      = 'scf'
   tstress          = .true.
   tprnfor          = .true.
   outdir           = './Sc2Y2'
   prefix           = 'Sc2Y2_beef'
   pseudo_dir       = '../pseudo'
   tefield          = .true.
   dipfield         = .true.
/
&SYSTEM
   celldm(1)        = 1.889726
   ecutwfc          = 55.123963237125
   ecutrho          = 551.23963237125
   nosym            = .true.
   occupations      = 'smearing'
   degauss          = 0.01D0
   smearing         = 'fd'
   input_dft        = 'BEEF-vdW'
   edir             = 3
   emaxpos          = 0.95
   eopreg           = 0.05
   eamp             = 0.01
   ntyp             = 2
   nat              = 12
   ibrav            = 0
/
&ELECTRONS
   electron_maxstep = 500
   conv_thr         = 1e-05
   mixing_mode      = 'plain'
   mixing_beta      = 0.1
   mixing_ndim      = 10
/
&IONS
/
&CELL
/

ATOMIC_SPECIES
Sc 44.955908 Sc.pbe-spn-rrkjus_psl.1.0.0.UPF
Y 88.90584 Y.pbe-spn-rrkjus_psl.1.0.0.UPF

K_POINTS automatic
12 12 1  0 0 0

CELL_PARAMETERS alat
6.78006200000000 0.00000000000000 0.00000000000000
3.18559800000000 5.98508200000000 0.00000000000000
0.00000000000000 0.00000000000000 25.58221300000000

ATOMIC_POSITIONS alat
Sc 0.0000000000 0.0000000000 10.0000000000 
Sc 4.9828303000 2.9925411000 10.0000000000 
Y 3.3900312000 0.0000000000 10.0000000000 
Y 1.5927992000 2.9925411000 10.0000000000 
Sc 6.7800623000 4.0719056000 12.7911063000 
Sc 1.7972320000 1.0793646000 12.7911063000 
Y 3.3900312000 4.0719056000 12.7911063000 
Y 5.1872631000 1.0793646000 12.7911063000 
Sc 3.5632711000 2.1399892000 15.4364506000 
Sc 8.5460788000 5.1325240000 15.4363958000 
Y 6.9770921000 2.1542865000 15.5504188000 
Y 5.1798647000 5.1468191000 15.5504302000 

