&CONTROL
   calculation      = 'scf'
   tstress          = .true.
   tprnfor          = .true.
   outdir           = './Ta2Hg2'
   prefix           = 'Ta2Hg2_beef'
   pseudo_dir       = '../pseudo'
   tefield          = .true.
   dipfield         = .true.
/
&SYSTEM
   celldm(1)        = 1.889726
   ecutwfc          = 55.123963237125
   ecutrho          = 551.23963237125
   nosym            = .true.
   occupations      = 'smearing'
   degauss          = 0.01D0
   smearing         = 'fd'
   input_dft        = 'BEEF-vdW'
   edir             = 3
   emaxpos          = 0.95
   eopreg           = 0.05
   eamp             = 0.01
   ntyp             = 2
   nat              = 12
   ibrav            = 0
/
&ELECTRONS
   electron_maxstep = 500
   conv_thr         = 1e-05
   mixing_mode      = 'plain'
   mixing_beta      = 0.1
   mixing_ndim      = 10
/
&IONS
/
&CELL
/

ATOMIC_SPECIES
Ta 180.94788 Ta.pbe-spfn-rrkjus_psl.1.0.0.UPF
Hg 200.592 Hg.pbe-n-rrkjus_psl.1.0.0.UPF

K_POINTS automatic
12 12 1  0 0 0

CELL_PARAMETERS alat
5.87265300000000 0.00000000000000 0.00000000000000
-2.93632600000000 5.36354200000000 0.00000000000000
0.00000000000000 0.00000000000000 24.91442200000000

ATOMIC_POSITIONS alat
Ta 0.0000000000 0.0000000000 10.0000000000 
Ta 2.9363264000 0.0000000000 10.0000000000 
Hg 1.4681632000 2.6817708000 10.0000000000 
Hg -1.4681632000 2.6817708000 10.0000000000 
Ta 2.9363264000 1.6075224000 12.4572108000 
Ta -0.0000000000 1.6075224000 12.4572108000 
Hg -1.4681632000 4.2892931000 12.4572108000 
Hg 1.4681632000 4.2892931000 12.4572108000 
Ta -0.0000004000 3.0013747000 14.7897486000 
Ta 2.9363309000 3.0013441000 14.7897338000 
Hg 4.4045041000 0.3695610000 15.2697303000 
Hg 1.4681592000 0.3695783000 15.2696938000 

