&CONTROL
   calculation      = 'scf'
   tstress          = .true.
   tprnfor          = .true.
   outdir           = './Ta2Ir2'
   prefix           = 'Ta2Ir2_beef'
   pseudo_dir       = '../pseudo'
   tefield          = .true.
   dipfield         = .true.
/
&SYSTEM
   celldm(1)        = 1.889726
   ecutwfc          = 55.123963237125
   ecutrho          = 551.23963237125
   nosym            = .true.
   occupations      = 'smearing'
   degauss          = 0.01D0
   smearing         = 'fd'
   input_dft        = 'BEEF-vdW'
   edir             = 3
   emaxpos          = 0.95
   eopreg           = 0.05
   eamp             = 0.01
   ntyp             = 2
   nat              = 12
   ibrav            = 0
/
&ELECTRONS
   electron_maxstep = 500
   conv_thr         = 1e-05
   mixing_mode      = 'plain'
   mixing_beta      = 0.1
   mixing_ndim      = 10
/
&IONS
/
&CELL
/

ATOMIC_SPECIES
Ta 180.94788 Ta.pbe-spfn-rrkjus_psl.1.0.0.UPF
Ir 192.217 Ir.pbe-n-rrkjus_psl.0.2.3.UPF

K_POINTS automatic
12 12 1  0 0 0

CELL_PARAMETERS alat
5.62854800000000 0.00000000000000 0.00000000000000
2.66350100000000 4.95845900000000 0.00000000000000
0.00000000000000 0.00000000000000 24.63062400000000

ATOMIC_POSITIONS alat
Ta 0.0000000000 0.0000000000 10.0000000000 
Ta 4.1460248000 2.4792296000 10.0000000000 
Ir 2.8142742000 0.0000000000 10.0000000000 
Ir 1.3317506000 2.4792296000 10.0000000000 
Ta 5.6285484000 3.3657455000 12.3153119000 
Ta 1.4825236000 0.8865158000 12.3153119000 
Ir 2.8142742000 3.3657455000 12.3153119000 
Ir 4.2967978000 0.8865158000 12.3153119000 
Ta 3.1414613000 1.8785201000 14.5930534000 
Ta 7.2874849000 4.3577537000 14.5930546000 
Ir 5.9605834000 1.8814207000 14.5474899000 
Ir 4.4780584000 4.3606520000 14.5474898000 

