&CONTROL
   calculation      = 'scf'
   tstress          = .true.
   tprnfor          = .true.
   outdir           = './Ta2Pt2'
   prefix           = 'Ta2Pt2_beef'
   pseudo_dir       = '../pseudo'
   tefield          = .true.
   dipfield         = .true.
/
&SYSTEM
   celldm(1)        = 1.889726
   ecutwfc          = 55.123963237125
   ecutrho          = 551.23963237125
   nosym            = .true.
   occupations      = 'smearing'
   degauss          = 0.01D0
   smearing         = 'fd'
   input_dft        = 'BEEF-vdW'
   edir             = 3
   emaxpos          = 0.95
   eopreg           = 0.05
   eamp             = 0.01
   ntyp             = 2
   nat              = 12
   ibrav            = 0
/
&ELECTRONS
   electron_maxstep = 500
   conv_thr         = 1e-05
   mixing_mode      = 'plain'
   mixing_beta      = 0.1
   mixing_ndim      = 10
/
&IONS
/
&CELL
/

ATOMIC_SPECIES
Ta 180.94788 Ta.pbe-spfn-rrkjus_psl.1.0.0.UPF
Pt 195.084 Pt.pbe-n-rrkjus_psl.1.0.0.UPF

K_POINTS automatic
12 12 1  0 0 0

CELL_PARAMETERS alat
5.66083300000000 0.00000000000000 0.00000000000000
-2.83041600000000 4.99913100000000 0.00000000000000
0.00000000000000 0.00000000000000 24.66611400000000

ATOMIC_POSITIONS alat
Ta 0.0000000000 0.0000000000 10.0000000000 
Ta 2.8304164000 0.0000000000 10.0000000000 
Pt 1.4152082000 2.4995654000 10.0000000000 
Pt -1.4152082000 2.4995654000 10.0000000000 
Ta 2.8304164000 1.6025300000 12.3330569000 
Ta 0.0000000000 1.6025300000 12.3330569000 
Pt -1.4152082000 4.1020954000 12.3330569000 
Pt 1.4152082000 4.1020954000 12.3330569000 
Ta 0.0000048000 3.3130380000 14.5782830000 
Ta 2.8304108000 3.3130368000 14.5782822000 
Pt 4.2456208000 0.8876613000 14.6349631000 
Pt 1.4152113000 0.8876621000 14.6349626000 

