&CONTROL
   calculation      = 'scf'
   tstress          = .true.
   tprnfor          = .true.
   outdir           = './Ta2Re2'
   prefix           = 'Ta2Re2_beef'
   pseudo_dir       = '../pseudo'
   tefield          = .true.
   dipfield         = .true.
/
&SYSTEM
   celldm(1)        = 1.889726
   ecutwfc          = 55.123963237125
   ecutrho          = 551.23963237125
   nosym            = .true.
   occupations      = 'smearing'
   degauss          = 0.01D0
   smearing         = 'fd'
   input_dft        = 'BEEF-vdW'
   edir             = 3
   emaxpos          = 0.95
   eopreg           = 0.05
   eamp             = 0.01
   ntyp             = 2
   nat              = 12
   ibrav            = 0
/
&ELECTRONS
   electron_maxstep = 500
   conv_thr         = 1e-05
   mixing_mode      = 'plain'
   mixing_beta      = 0.1
   mixing_ndim      = 10
/
&IONS
/
&CELL
/

ATOMIC_SPECIES
Ta 180.94788 Ta.pbe-spfn-rrkjus_psl.1.0.0.UPF
Re 186.207 Re.pbe-spn-rrkjus_psl.1.0.0.UPF

K_POINTS automatic
12 12 1  0 0 0

CELL_PARAMETERS alat
5.53075000000000 0.00000000000000 0.00000000000000
1.79830700000000 5.23022800000000 0.00000000000000
0.00000000000000 0.00000000000000 24.50118100000000

ATOMIC_POSITIONS alat
Ta 0.0000000000 0.0000000000 10.0000000000 
Ta 3.6645282000 2.6151140000 10.0000000000 
Re 2.7653748000 0.0000000000 10.0000000000 
Re 0.8991534000 2.6151140000 10.0000000000 
Ta 5.5307497000 3.9469039000 12.2505903000 
Ta 1.8662214000 1.3317899000 12.2505903000 
Re 2.7653748000 3.9469039000 12.2505903000 
Re 4.6315963000 1.3317899000 12.2505903000 
Ta 3.7038850000 2.6432030000 14.5043784000 
Ta 0.0393495000 0.0280854000 14.5043841000 
Re 0.9402132000 2.6444061000 14.3940844000 
Re 2.8064262000 0.0292930000 14.3940910000 

