&CONTROL
   calculation      = 'scf'
   tstress          = .true.
   tprnfor          = .true.
   outdir           = './Tc2Ag2'
   prefix           = 'Tc2Ag2_beef'
   pseudo_dir       = '../pseudo'
   tefield          = .true.
   dipfield         = .true.
/
&SYSTEM
   celldm(1)        = 1.889726
   ecutwfc          = 55.123963237125
   ecutrho          = 551.23963237125
   nosym            = .true.
   occupations      = 'smearing'
   degauss          = 0.01D0
   smearing         = 'fd'
   input_dft        = 'BEEF-vdW'
   edir             = 3
   emaxpos          = 0.95
   eopreg           = 0.05
   eamp             = 0.01
   ntyp             = 2
   nat              = 12
   ibrav            = 0
/
&ELECTRONS
   electron_maxstep = 500
   conv_thr         = 1e-05
   mixing_mode      = 'plain'
   mixing_beta      = 0.1
   mixing_ndim      = 10
/
&IONS
/
&CELL
/

ATOMIC_SPECIES
Tc 97.90721 Tc.pbe-spn-rrkjus_psl.0.3.0.UPF
Ag 107.8682 Ag.pbe-n-rrkjus_psl.1.0.0.UPF

K_POINTS automatic
12 12 1  0 0 0

CELL_PARAMETERS alat
5.28731600000000 0.00000000000000 0.00000000000000
-2.64365800000000 5.32618300000000 0.00000000000000
0.00000000000000 0.00000000000000 24.59003400000000

ATOMIC_POSITIONS alat
Tc 0.0000000000 0.0000000000 10.0000000000 
Tc 2.6436582000 0.0000000000 10.0000000000 
Ag 1.3218291000 2.6630913000 10.0000000000 
Ag -1.3218291000 2.6630913000 10.0000000000 
Tc 2.6436582000 1.3121834000 12.2950170000 
Tc -0.0000000000 1.3121834000 12.2950170000 
Ag -1.3218291000 3.9752747000 12.2950170000 
Ag 1.3218291000 3.9752747000 12.2950170000 
Tc 0.0001181000 2.2719559000 14.3555435000 
Tc 2.6437854000 2.2722522000 14.3556700000 
Ag 1.3238881000 5.0219829000 14.8918047000 
Ag -1.3229806000 5.0219903000 14.8918018000 

