&CONTROL
   calculation      = 'scf'
   tstress          = .true.
   tprnfor          = .true.
   outdir           = './Tc2Au2'
   prefix           = 'Tc2Au2_beef'
   pseudo_dir       = '../pseudo'
   tefield          = .true.
   dipfield         = .true.
/
&SYSTEM
   celldm(1)        = 1.889726
   ecutwfc          = 55.123963237125
   ecutrho          = 551.23963237125
   nosym            = .true.
   occupations      = 'smearing'
   degauss          = 0.01D0
   smearing         = 'fd'
   input_dft        = 'BEEF-vdW'
   edir             = 3
   emaxpos          = 0.95
   eopreg           = 0.05
   eamp             = 0.01
   ntyp             = 2
   nat              = 12
   ibrav            = 0
/
&ELECTRONS
   electron_maxstep = 500
   conv_thr         = 1e-05
   mixing_mode      = 'plain'
   mixing_beta      = 0.1
   mixing_ndim      = 10
/
&IONS
/
&CELL
/

ATOMIC_SPECIES
Tc 97.90721 Tc.pbe-spn-rrkjus_psl.0.3.0.UPF
Au 196.966569 Au.pbe-n-rrkjus_psl.1.0.0.UPF

K_POINTS automatic
12 12 1  0 0 0

CELL_PARAMETERS alat
5.43343300000000 0.00000000000000 0.00000000000000
-2.71671700000000 5.16076100000000 0.00000000000000
0.00000000000000 0.00000000000000 24.61964600000000

ATOMIC_POSITIONS alat
Tc 0.0000000000 0.0000000000 10.0000000000 
Tc 2.7167165000 0.0000000000 10.0000000000 
Au 1.3583583000 2.5803806000 10.0000000000 
Au -1.3583583000 2.5803806000 10.0000000000 
Tc 2.7167165000 1.4301279000 12.3098231000 
Tc 0.0000000000 1.4301279000 12.3098231000 
Au -1.3583583000 4.0105085000 12.3098231000 
Au 1.3583583000 4.0105085000 12.3098231000 
Tc 0.0005920000 0.5580683000 14.3703651000 
Tc 2.7172486000 0.5587898000 14.3709568000 
Au 1.3604038000 3.0315064000 14.9759424000 
Au -1.3587885000 3.0315019000 14.9760019000 

