&CONTROL
   calculation      = 'scf'
   tstress          = .true.
   tprnfor          = .true.
   outdir           = './Tc2Ir2'
   prefix           = 'Tc2Ir2_beef'
   pseudo_dir       = '../pseudo'
   tefield          = .true.
   dipfield         = .true.
/
&SYSTEM
   celldm(1)        = 1.889726
   ecutwfc          = 55.123963237125
   ecutrho          = 551.23963237125
   nosym            = .true.
   occupations      = 'smearing'
   degauss          = 0.01D0
   smearing         = 'fd'
   input_dft        = 'BEEF-vdW'
   edir             = 3
   emaxpos          = 0.95
   eopreg           = 0.05
   eamp             = 0.01
   ntyp             = 2
   nat              = 12
   ibrav            = 0
/
&ELECTRONS
   electron_maxstep = 500
   conv_thr         = 1e-05
   mixing_mode      = 'plain'
   mixing_beta      = 0.1
   mixing_ndim      = 10
/
&IONS
/
&CELL
/

ATOMIC_SPECIES
Tc 97.90721 Tc.pbe-spn-rrkjus_psl.0.3.0.UPF
Ir 192.217 Ir.pbe-n-rrkjus_psl.0.2.3.UPF

K_POINTS automatic
12 12 1  0 0 0

CELL_PARAMETERS alat
5.44568800000000 0.00000000000000 0.00000000000000
-2.72284400000000 4.76087400000000 0.00000000000000
0.00000000000000 0.00000000000000 24.46714500000000

ATOMIC_POSITIONS alat
Tc 0.0000000000 0.0000000000 10.0000000000 
Tc 2.7228442000 0.0000000000 10.0000000000 
Ir 1.3614221000 2.3804370000 10.0000000000 
Ir -1.3614221000 2.3804370000 10.0000000000 
Tc 2.7228442000 1.5572520000 12.2335726000 
Tc -0.0000000000 1.5572520000 12.2335726000 
Ir -1.3614221000 3.9376890000 12.2335726000 
Ir 1.3614221000 3.9376890000 12.2335726000 
Tc 0.0000008000 3.1108817000 14.3816378000 
Tc 2.7228429000 3.1108910000 14.3816251000 
Ir 4.0842661000 0.8002419000 14.3732971000 
Ir 1.3614211000 0.8002427000 14.3733000000 

