&CONTROL
   calculation      = 'scf'
   tstress          = .true.
   tprnfor          = .true.
   outdir           = './Tc2Os2'
   prefix           = 'Tc2Os2_beef'
   pseudo_dir       = '../pseudo'
   tefield          = .true.
   dipfield         = .true.
/
&SYSTEM
   celldm(1)        = 1.889726
   ecutwfc          = 55.123963237125
   ecutrho          = 551.23963237125
   nosym            = .true.
   occupations      = 'smearing'
   degauss          = 0.01D0
   smearing         = 'fd'
   input_dft        = 'BEEF-vdW'
   edir             = 3
   emaxpos          = 0.95
   eopreg           = 0.05
   eamp             = 0.01
   ntyp             = 2
   nat              = 12
   ibrav            = 0
/
&ELECTRONS
   electron_maxstep = 500
   conv_thr         = 1e-05
   mixing_mode      = 'plain'
   mixing_beta      = 0.1
   mixing_ndim      = 10
/
&IONS
/
&CELL
/

ATOMIC_SPECIES
Tc 97.90721 Tc.pbe-spn-rrkjus_psl.0.3.0.UPF
Os 190.23 Os.pbe-spn-rrkjus_psl.1.0.0.UPF

K_POINTS automatic
12 12 1  0 0 0

CELL_PARAMETERS alat
5.46226700000000 0.00000000000000 0.00000000000000
-2.73113400000000 4.73990800000000 0.00000000000000
0.00000000000000 0.00000000000000 24.46436000000000

ATOMIC_POSITIONS alat
Tc 0.0000000000 0.0000000000 10.0000000000 
Tc 2.7311337000 0.0000000000 10.0000000000 
Os 1.3655669000 2.3699540000 10.0000000000 
Os -1.3655669000 2.3699540000 10.0000000000 
Tc 2.7311337000 1.5736785000 12.2321800000 
Tc -0.0000000000 1.5736785000 12.2321800000 
Os -1.3655669000 3.9436325000 12.2321800000 
Os 1.3655669000 3.9436325000 12.2321800000 
Tc -0.0000001000 3.1546755000 14.3694989000 
Tc 2.7311340000 3.1546751000 14.3694902000 
Os 4.0967064000 0.7819362000 14.3591989000 
Os 1.3655619000 0.7819364000 14.3592032000 

