&CONTROL
   calculation      = 'scf'
   tstress          = .true.
   tprnfor          = .true.
   outdir           = './Tc2Rh2'
   prefix           = 'Tc2Rh2_beef'
   pseudo_dir       = '../pseudo'
   tefield          = .true.
   dipfield         = .true.
/
&SYSTEM
   celldm(1)        = 1.889726
   ecutwfc          = 55.123963237125
   ecutrho          = 551.23963237125
   nosym            = .true.
   occupations      = 'smearing'
   degauss          = 0.01D0
   smearing         = 'fd'
   input_dft        = 'BEEF-vdW'
   edir             = 3
   emaxpos          = 0.95
   eopreg           = 0.05
   eamp             = 0.01
   ntyp             = 2
   nat              = 12
   ibrav            = 0
/
&ELECTRONS
   electron_maxstep = 500
   conv_thr         = 1e-05
   mixing_mode      = 'plain'
   mixing_beta      = 0.1
   mixing_ndim      = 10
/
&IONS
/
&CELL
/

ATOMIC_SPECIES
Tc 97.90721 Tc.pbe-spn-rrkjus_psl.0.3.0.UPF
Rh 102.9055 Rh.pbe-spn-rrkjus_psl.1.0.0.UPF

K_POINTS automatic
12 12 1  0 0 0

CELL_PARAMETERS alat
5.39149400000000 0.00000000000000 0.00000000000000
-2.69574700000000 4.77092500000000 0.00000000000000
0.00000000000000 0.00000000000000 24.44833800000000

ATOMIC_POSITIONS alat
Tc 0.0000000000 0.0000000000 10.0000000000 
Tc 2.6957471000 0.0000000000 10.0000000000 
Rh 1.3478735000 2.3854625000 10.0000000000 
Rh -1.3478735000 2.3854625000 10.0000000000 
Tc 2.6957471000 1.5231956000 12.2241689000 
Tc 0.0000000000 1.5231956000 12.2241689000 
Rh -1.3478735000 3.9086582000 12.2241689000 
Rh 1.3478735000 3.9086582000 12.2241689000 
Tc -0.0000006000 3.0589742000 14.3500983000 
Tc 2.6957469000 3.0589756000 14.3501206000 
Rh 4.0436211000 0.7511625000 14.3719435000 
Rh 1.3478725000 0.7511622000 14.3719439000 

