&CONTROL
   calculation      = 'scf'
   tstress          = .true.
   tprnfor          = .true.
   outdir           = './Tc2Ta2'
   prefix           = 'Tc2Ta2_beef'
   pseudo_dir       = '../pseudo'
   tefield          = .true.
   dipfield         = .true.
/
&SYSTEM
   celldm(1)        = 1.889726
   ecutwfc          = 55.123963237125
   ecutrho          = 551.23963237125
   nosym            = .true.
   occupations      = 'smearing'
   degauss          = 0.01D0
   smearing         = 'fd'
   input_dft        = 'BEEF-vdW'
   edir             = 3
   emaxpos          = 0.95
   eopreg           = 0.05
   eamp             = 0.01
   ntyp             = 2
   nat              = 12
   ibrav            = 0
/
&ELECTRONS
   electron_maxstep = 500
   conv_thr         = 1e-05
   mixing_mode      = 'plain'
   mixing_beta      = 0.1
   mixing_ndim      = 10
/
&IONS
/
&CELL
/

ATOMIC_SPECIES
Tc 97.90721 Tc.pbe-spn-rrkjus_psl.0.3.0.UPF
Ta 180.94788 Ta.pbe-spfn-rrkjus_psl.1.0.0.UPF

K_POINTS automatic
12 12 1  0 0 0

CELL_PARAMETERS alat
5.50692500000000 0.00000000000000 0.00000000000000
1.80608200000000 5.20233500000000 0.00000000000000
0.00000000000000 0.00000000000000 24.48699600000000

ATOMIC_POSITIONS alat
Tc 0.0000000000 0.0000000000 10.0000000000 
Tc 3.6565039000 2.6011677000 10.0000000000 
Ta 2.7534627000 0.0000000000 10.0000000000 
Ta 0.9030412000 2.6011677000 10.0000000000 
Tc 5.5069255000 3.9175227000 12.2434980000 
Tc 1.8504216000 1.3163549000 12.2434980000 
Ta 2.7534627000 3.9175227000 12.2434980000 
Ta 4.6038843000 1.3163549000 12.2434980000 
Tc 3.6864631000 2.6224806000 14.3873620000 
Tc 0.0299601000 0.0213137000 14.3873665000 
Ta 0.9309393000 2.6210142000 14.4593597000 
Ta 2.7813600000 0.0198461000 14.4593604000 

