&CONTROL
   calculation      = 'scf'
   tstress          = .true.
   tprnfor          = .true.
   outdir           = './Ti2Ag2'
   prefix           = 'Ti2Ag2_beef'
   pseudo_dir       = '../pseudo'
   tefield          = .true.
   dipfield         = .true.
/
&SYSTEM
   celldm(1)        = 1.889726
   ecutwfc          = 55.123963237125
   ecutrho          = 551.23963237125
   nosym            = .true.
   occupations      = 'smearing'
   degauss          = 0.01D0
   smearing         = 'fd'
   input_dft        = 'BEEF-vdW'
   edir             = 3
   emaxpos          = 0.95
   eopreg           = 0.05
   eamp             = 0.01
   ntyp             = 2
   nat              = 12
   ibrav            = 0
/
&ELECTRONS
   electron_maxstep = 500
   conv_thr         = 1e-05
   mixing_mode      = 'plain'
   mixing_beta      = 0.1
   mixing_ndim      = 10
/
&IONS
/
&CELL
/

ATOMIC_SPECIES
Ti 47.867 Ti.pbe-spn-rrkjus_psl.1.0.0.UPF
Ag 107.8682 Ag.pbe-n-rrkjus_psl.1.0.0.UPF

K_POINTS automatic
12 12 1  0 0 0

CELL_PARAMETERS alat
5.68988000000000 0.00000000000000 0.00000000000000
-2.84494000000000 5.17208500000000 0.00000000000000
0.00000000000000 0.00000000000000 24.75177400000000

ATOMIC_POSITIONS alat
Ti 0.0000000000 0.0000000000 10.0000000000 
Ti 2.8449399000 0.0000000000 10.0000000000 
Ag 1.4224700000 2.5860424000 10.0000000000 
Ag -1.4224700000 2.5860424000 10.0000000000 
Ti 2.8449399000 1.5648783000 12.3758870000 
Ti 0.0000000000 1.5648783000 12.3758870000 
Ag -1.4224700000 4.1509207000 12.3758870000 
Ag 1.4224700000 4.1509207000 12.3758870000 
Ti -0.0000001000 3.1181933000 14.5984151000 
Ti 2.8449402000 3.1181794000 14.5984378000 
Ag 4.2674185000 0.5774639000 14.8269930000 
Ag 1.4224610000 0.5774637000 14.8269934000 

