&CONTROL
   calculation      = 'scf'
   tstress          = .true.
   tprnfor          = .true.
   outdir           = './Ti2Cd2'
   prefix           = 'Ti2Cd2_beef'
   pseudo_dir       = '../pseudo'
   tefield          = .true.
   dipfield         = .true.
/
&SYSTEM
   celldm(1)        = 1.889726
   ecutwfc          = 55.123963237125
   ecutrho          = 551.23963237125
   nosym            = .true.
   occupations      = 'smearing'
   degauss          = 0.01D0
   smearing         = 'fd'
   input_dft        = 'BEEF-vdW'
   edir             = 3
   emaxpos          = 0.95
   eopreg           = 0.05
   eamp             = 0.01
   ntyp             = 2
   nat              = 12
   ibrav            = 0
/
&ELECTRONS
   electron_maxstep = 500
   conv_thr         = 1e-05
   mixing_mode      = 'plain'
   mixing_beta      = 0.1
   mixing_ndim      = 10
/
&IONS
/
&CELL
/

ATOMIC_SPECIES
Ti 47.867 Ti.pbe-spn-rrkjus_psl.1.0.0.UPF
Cd 112.414 Cd.pbe-n-rrkjus_psl.1.0.0.UPF

K_POINTS automatic
12 12 1  0 0 0

CELL_PARAMETERS alat
5.93741500000000 0.00000000000000 0.00000000000000
-2.96870800000000 5.24474600000000 0.00000000000000
0.00000000000000 0.00000000000000 24.89469500000000

ATOMIC_POSITIONS alat
Ti 0.0000000000 0.0000000000 10.0000000000 
Ti 2.9687077000 0.0000000000 10.0000000000 
Cd 1.4843539000 2.6223728000 10.0000000000 
Cd -1.4843539000 2.6223728000 10.0000000000 
Ti 2.9687077000 1.6803914000 12.4473476000 
Ti -0.0000000000 1.6803914000 12.4473476000 
Cd -1.4843539000 4.3027643000 12.4473476000 
Cd 1.4843539000 4.3027643000 12.4473476000 
Ti 0.0000037000 3.1968027000 14.7498485000 
Ti 2.9687092000 3.1967744000 14.7498177000 
Cd 4.4529671000 0.6084806000 15.0664095000 
Cd 1.4844706000 0.6084912000 15.0664151000 

