&CONTROL
   calculation      = 'scf'
   tstress          = .true.
   tprnfor          = .true.
   outdir           = './Ti2Cr2'
   prefix           = 'Ti2Cr2_beef'
   pseudo_dir       = '../pseudo'
   tefield          = .true.
   dipfield         = .true.
/
&SYSTEM
   celldm(1)        = 1.889726
   ecutwfc          = 55.123963237125
   ecutrho          = 551.23963237125
   nosym            = .true.
   occupations      = 'smearing'
   degauss          = 0.01D0
   smearing         = 'fd'
   input_dft        = 'BEEF-vdW'
   edir             = 3
   emaxpos          = 0.95
   eopreg           = 0.05
   eamp             = 0.01
   ntyp             = 2
   nat              = 12
   ibrav            = 0
/
&ELECTRONS
   electron_maxstep = 500
   conv_thr         = 1e-05
   mixing_mode      = 'plain'
   mixing_beta      = 0.1
   mixing_ndim      = 10
/
&IONS
/
&CELL
/

ATOMIC_SPECIES
Ti 47.867 Ti.pbe-spn-rrkjus_psl.1.0.0.UPF
Cr 51.9961 Cr.pbe-spn-rrkjus_psl.1.0.0.UPF

K_POINTS automatic
12 12 1  0 0 0

CELL_PARAMETERS alat
5.26094000000000 0.00000000000000 0.00000000000000
1.75487200000000 4.95962900000000 0.00000000000000
0.00000000000000 0.00000000000000 24.29591400000000

ATOMIC_POSITIONS alat
Ti 0.0000000000 0.0000000000 10.0000000000 
Ti 3.5079061000 2.4798144000 10.0000000000 
Cr 2.6304702000 0.0000000000 10.0000000000 
Cr 0.8774359000 2.4798144000 10.0000000000 
Ti 5.2609404000 3.7190721000 12.1479572000 
Ti 1.7530343000 1.2392577000 12.1479572000 
Cr 2.6304702000 3.7190721000 12.1479572000 
Cr 4.3835045000 1.2392577000 12.1479572000 
Ti 3.5066335000 2.4788942000 14.2483695000 
Ti 7.0145229000 4.9587374000 14.2483697000 
Cr 6.1367379000 2.4786546000 14.1680337000 
Cr 4.3837175000 4.9584803000 14.1680281000 

