&CONTROL
   calculation      = 'scf'
   tstress          = .true.
   tprnfor          = .true.
   outdir           = './Ti2Hg2'
   prefix           = 'Ti2Hg2_beef'
   pseudo_dir       = '../pseudo'
   tefield          = .true.
   dipfield         = .true.
/
&SYSTEM
   celldm(1)        = 1.889726
   ecutwfc          = 55.123963237125
   ecutrho          = 551.23963237125
   nosym            = .true.
   occupations      = 'smearing'
   degauss          = 0.01D0
   smearing         = 'fd'
   input_dft        = 'BEEF-vdW'
   edir             = 3
   emaxpos          = 0.95
   eopreg           = 0.05
   eamp             = 0.01
   ntyp             = 2
   nat              = 12
   ibrav            = 0
/
&ELECTRONS
   electron_maxstep = 500
   conv_thr         = 1e-05
   mixing_mode      = 'plain'
   mixing_beta      = 0.1
   mixing_ndim      = 10
/
&IONS
/
&CELL
/

ATOMIC_SPECIES
Ti 47.867 Ti.pbe-spn-rrkjus_psl.1.0.0.UPF
Hg 200.592 Hg.pbe-n-rrkjus_psl.1.0.0.UPF

K_POINTS automatic
12 12 1  0 0 0

CELL_PARAMETERS alat
5.96759900000000 0.00000000000000 0.00000000000000
2.86571300000000 5.23449400000000 0.00000000000000
0.00000000000000 0.00000000000000 24.90114200000000

ATOMIC_POSITIONS alat
Ti 0.0000000000 0.0000000000 10.0000000000 
Ti 4.4166563000 2.6172472000 10.0000000000 
Hg 2.9837997000 0.0000000000 10.0000000000 
Hg 1.4328566000 2.6172472000 10.0000000000 
Ti 5.9675994000 3.5363139000 12.4505712000 
Ti 1.5509432000 0.9190667000 12.4505712000 
Hg 2.9837997000 3.5363139000 12.4505712000 
Hg 4.5347429000 0.9190667000 12.4505712000 
Ti 2.9337043000 1.7384752000 14.7378054000 
Ti 7.3503723000 4.3557291000 14.7377824000 
Hg 5.9556050000 1.7610561000 15.1209114000 
Hg 4.4046662000 4.3782982000 15.1209174000 

