&CONTROL
   calculation      = 'scf'
   tstress          = .true.
   tprnfor          = .true.
   outdir           = './Ti2La2'
   prefix           = 'Ti2La2_beef'
   pseudo_dir       = '../pseudo'
   tefield          = .true.
   dipfield         = .true.
/
&SYSTEM
   celldm(1)        = 1.889726
   ecutwfc          = 55.123963237125
   ecutrho          = 551.23963237125
   nosym            = .true.
   occupations      = 'smearing'
   degauss          = 0.01D0
   smearing         = 'fd'
   input_dft        = 'BEEF-vdW'
   edir             = 3
   emaxpos          = 0.95
   eopreg           = 0.05
   eamp             = 0.01
   ntyp             = 2
   nat              = 12
   ibrav            = 0
/
&ELECTRONS
   electron_maxstep = 500
   conv_thr         = 1e-05
   mixing_mode      = 'plain'
   mixing_beta      = 0.1
   mixing_ndim      = 10
/
&IONS
/
&CELL
/

ATOMIC_SPECIES
Ti 47.867 Ti.pbe-spn-rrkjus_psl.1.0.0.UPF
La 138.90547 La.pbe-spfn-rrkjus_psl.1.0.0.UPF

K_POINTS automatic
12 12 1  0 0 0

CELL_PARAMETERS alat
6.45611500000000 0.00000000000000 0.00000000000000
2.25112500000000 6.05093900000000 0.00000000000000
0.00000000000000 0.00000000000000 25.29855800000000

ATOMIC_POSITIONS alat
Ti 0.0000000000 0.0000000000 10.0000000000 
Ti 4.3536201000 3.0254695000 10.0000000000 
La 3.2280577000 0.0000000000 10.0000000000 
La 1.1255625000 3.0254695000 10.0000000000 
Ti 6.4561153000 4.4865604000 12.6492789000 
Ti 2.1024952000 1.4610910000 12.6492789000 
La 3.2280577000 4.4865604000 12.6492789000 
La 5.3305529000 1.4610910000 12.6492789000 
Ti 3.6858741000 2.5616289000 14.9096183000 
Ti 8.0405139000 5.5873949000 14.9098918000 
La 7.0210248000 2.6365127000 15.5092346000 
La 4.9192443000 5.6611471000 15.5093090000 

