&CONTROL
   calculation      = 'scf'
   tstress          = .true.
   tprnfor          = .true.
   outdir           = './Ti2Mo2'
   prefix           = 'Ti2Mo2_beef'
   pseudo_dir       = '../pseudo'
   tefield          = .true.
   dipfield         = .true.
/
&SYSTEM
   celldm(1)        = 1.889726
   ecutwfc          = 55.123963237125
   ecutrho          = 551.23963237125
   nosym            = .true.
   occupations      = 'smearing'
   degauss          = 0.01D0
   smearing         = 'fd'
   input_dft        = 'BEEF-vdW'
   edir             = 3
   emaxpos          = 0.95
   eopreg           = 0.05
   eamp             = 0.01
   ntyp             = 2
   nat              = 12
   ibrav            = 0
/
&ELECTRONS
   electron_maxstep = 500
   conv_thr         = 1e-05
   mixing_mode      = 'plain'
   mixing_beta      = 0.1
   mixing_ndim      = 10
/
&IONS
/
&CELL
/

ATOMIC_SPECIES
Ti 47.867 Ti.pbe-spn-rrkjus_psl.1.0.0.UPF
Mo 95.95 Mo.pbe-spn-rrkjus_psl.1.0.0.UPF

K_POINTS automatic
12 12 1  0 0 0

CELL_PARAMETERS alat
5.30511300000000 0.00000000000000 0.00000000000000
-2.65255600000000 5.34430300000000 0.00000000000000
0.00000000000000 0.00000000000000 24.60553800000000

ATOMIC_POSITIONS alat
Ti 0.0000000000 0.0000000000 10.0000000000 
Ti 2.6525565000 0.0000000000 10.0000000000 
Mo 1.3262782000 2.6721513000 10.0000000000 
Mo -1.3262782000 2.6721513000 10.0000000000 
Ti 2.6525565000 1.3165526000 12.3027690000 
Ti 0.0000000000 1.3165526000 12.3027690000 
Mo -1.3262782000 3.9887040000 12.3027690000 
Mo 1.3262782000 3.9887040000 12.3027690000 
Ti 0.0001186000 2.7055711000 14.6907665000 
Ti 2.6526759000 2.7055743000 14.6907444000 
Mo 3.9787590000 0.0136851000 14.4817303000 
Mo 1.3261884000 0.0136860000 14.4817249000 

