&CONTROL
   calculation      = 'scf'
   tstress          = .true.
   tprnfor          = .true.
   outdir           = './Ti2Nb2'
   prefix           = 'Ti2Nb2_beef'
   pseudo_dir       = '../pseudo'
   tefield          = .true.
   dipfield         = .true.
/
&SYSTEM
   celldm(1)        = 1.889726
   ecutwfc          = 55.123963237125
   ecutrho          = 551.23963237125
   nosym            = .true.
   occupations      = 'smearing'
   degauss          = 0.01D0
   smearing         = 'fd'
   input_dft        = 'BEEF-vdW'
   edir             = 3
   emaxpos          = 0.95
   eopreg           = 0.05
   eamp             = 0.01
   ntyp             = 2
   nat              = 12
   ibrav            = 0
/
&ELECTRONS
   electron_maxstep = 500
   conv_thr         = 1e-05
   mixing_mode      = 'plain'
   mixing_beta      = 0.1
   mixing_ndim      = 10
/
&IONS
/
&CELL
/

ATOMIC_SPECIES
Ti 47.867 Ti.pbe-spn-rrkjus_psl.1.0.0.UPF
Nb 92.90637 Nb.pbe-spn-rrkjus_psl.1.0.0.UPF

K_POINTS automatic
12 12 1  0 0 0

CELL_PARAMETERS alat
5.52134300000000 0.00000000000000 0.00000000000000
-2.76067200000000 5.43770300000000 0.00000000000000
0.00000000000000 0.00000000000000 24.75685500000000

ATOMIC_POSITIONS alat
Ti 0.0000000000 0.0000000000 10.0000000000 
Ti 2.7606717000 0.0000000000 10.0000000000 
Nb 1.3803358000 2.7188516000 10.0000000000 
Nb -1.3803358000 2.7188516000 10.0000000000 
Ti 2.7606717000 1.4015675000 12.3784274000 
Ti -0.0000000000 1.4015675000 12.3784274000 
Nb -1.3803358000 4.1204191000 12.3784274000 
Nb 1.3803358000 4.1204191000 12.3784274000 
Ti -0.0001195000 2.8011625000 14.7258435000 
Ti 2.7605522000 2.8011527000 14.7258378000 
Nb 4.1407578000 0.1027322000 14.6453979000 
Nb 1.3800889000 0.1027329000 14.6453966000 

