&CONTROL
   calculation      = 'scf'
   tstress          = .true.
   tprnfor          = .true.
   outdir           = './Ti2Ta2'
   prefix           = 'Ti2Ta2_beef'
   pseudo_dir       = '../pseudo'
   tefield          = .true.
   dipfield         = .true.
/
&SYSTEM
   celldm(1)        = 1.889726
   ecutwfc          = 55.123963237125
   ecutrho          = 551.23963237125
   nosym            = .true.
   occupations      = 'smearing'
   degauss          = 0.01D0
   smearing         = 'fd'
   input_dft        = 'BEEF-vdW'
   edir             = 3
   emaxpos          = 0.95
   eopreg           = 0.05
   eamp             = 0.01
   ntyp             = 2
   nat              = 12
   ibrav            = 0
/
&ELECTRONS
   electron_maxstep = 500
   conv_thr         = 1e-05
   mixing_mode      = 'plain'
   mixing_beta      = 0.1
   mixing_ndim      = 10
/
&IONS
/
&CELL
/

ATOMIC_SPECIES
Ti 47.867 Ti.pbe-spn-rrkjus_psl.1.0.0.UPF
Ta 180.94788 Ta.pbe-spfn-rrkjus_psl.1.0.0.UPF

K_POINTS automatic
12 12 1  0 0 0

CELL_PARAMETERS alat
5.60926300000000 0.00000000000000 0.00000000000000
-2.80463100000000 5.35491900000000 0.00000000000000
0.00000000000000 0.00000000000000 24.77837900000000

ATOMIC_POSITIONS alat
Ti 0.0000000000 0.0000000000 10.0000000000 
Ti 2.8046314000 0.0000000000 10.0000000000 
Ta 1.4023157000 2.6774596000 10.0000000000 
Ta -1.4023157000 2.6774596000 10.0000000000 
Ti 2.8046314000 1.4689217000 12.3891894000 
Ti -0.0000000000 1.4689217000 12.3891894000 
Ta -1.4023157000 4.1463813000 12.3891894000 
Ta 1.4023157000 4.1463813000 12.3891894000 
Ti -0.0000021000 2.9293571000 14.7260014000 
Ti 2.8046326000 2.9293539000 14.7259708000 
Ta 4.2069383000 0.2952367000 14.6693219000 
Ta 1.4023232000 0.2952353000 14.6693240000 

