&CONTROL
   calculation      = 'scf'
   tstress          = .true.
   tprnfor          = .true.
   outdir           = './Ti2Tc2'
   prefix           = 'Ti2Tc2_beef'
   pseudo_dir       = '../pseudo'
   tefield          = .true.
   dipfield         = .true.
/
&SYSTEM
   celldm(1)        = 1.889726
   ecutwfc          = 55.123963237125
   ecutrho          = 551.23963237125
   nosym            = .true.
   occupations      = 'smearing'
   degauss          = 0.01D0
   smearing         = 'fd'
   input_dft        = 'BEEF-vdW'
   edir             = 3
   emaxpos          = 0.95
   eopreg           = 0.05
   eamp             = 0.01
   ntyp             = 2
   nat              = 12
   ibrav            = 0
/
&ELECTRONS
   electron_maxstep = 500
   conv_thr         = 1e-05
   mixing_mode      = 'plain'
   mixing_beta      = 0.1
   mixing_ndim      = 10
/
&IONS
/
&CELL
/

ATOMIC_SPECIES
Ti 47.867 Ti.pbe-spn-rrkjus_psl.1.0.0.UPF
Tc 97.90721 Tc.pbe-spn-rrkjus_psl.0.3.0.UPF

K_POINTS automatic
12 12 1  0 0 0

CELL_PARAMETERS alat
5.38196800000000 0.00000000000000 0.00000000000000
1.79399400000000 5.07416600000000 0.00000000000000
0.00000000000000 0.00000000000000 24.39436000000000

ATOMIC_POSITIONS alat
Ti 0.0000000000 0.0000000000 10.0000000000 
Ti 3.5879808000 2.5370831000 10.0000000000 
Tc 2.6909839000 0.0000000000 10.0000000000 
Tc 0.8969970000 2.5370831000 10.0000000000 
Ti 5.3819677000 3.8056222000 12.1971798000 
Ti 1.7939869000 1.2685391000 12.1971798000 
Tc 2.6909839000 3.8056222000 12.1971798000 
Tc 4.4849708000 1.2685391000 12.1971798000 
Ti 3.5879754000 2.5370810000 14.3207484000 
Ti 7.1759596000 5.0741632000 14.3207444000 
Tc 6.2789603000 2.5370818000 14.3558585000 
Tc 4.4849697000 5.0741558000 14.3558648000 

