&CONTROL
   calculation      = 'scf'
   tstress          = .true.
   tprnfor          = .true.
   outdir           = './Ti2W2'
   prefix           = 'Ti2W2_beef'
   pseudo_dir       = '../pseudo'
   tefield          = .true.
   dipfield         = .true.
/
&SYSTEM
   celldm(1)        = 1.889726
   ecutwfc          = 55.123963237125
   ecutrho          = 551.23963237125
   nosym            = .true.
   occupations      = 'smearing'
   degauss          = 0.01D0
   smearing         = 'fd'
   input_dft        = 'BEEF-vdW'
   edir             = 3
   emaxpos          = 0.95
   eopreg           = 0.05
   eamp             = 0.01
   ntyp             = 2
   nat              = 12
   ibrav            = 0
/
&ELECTRONS
   electron_maxstep = 500
   conv_thr         = 1e-05
   mixing_mode      = 'plain'
   mixing_beta      = 0.1
   mixing_ndim      = 10
/
&IONS
/
&CELL
/

ATOMIC_SPECIES
Ti 47.867 Ti.pbe-spn-rrkjus_psl.1.0.0.UPF
W 183.84 W.pbe-spn-rrkjus_psl.0.2.3.UPF

K_POINTS automatic
12 12 1  0 0 0

CELL_PARAMETERS alat
5.36435500000000 0.00000000000000 0.00000000000000
-2.68217700000000 5.31779200000000 0.00000000000000
0.00000000000000 0.00000000000000 24.63202900000000

ATOMIC_POSITIONS alat
Ti 0.0000000000 0.0000000000 10.0000000000 
Ti 2.6821775000 0.0000000000 10.0000000000 
W 1.3410887000 2.6588958000 10.0000000000 
W -1.3410887000 2.6588958000 10.0000000000 
Ti 2.6821775000 1.3528315000 12.3160144000 
Ti 0.0000000000 1.3528315000 12.3160144000 
W -1.3410887000 4.0117273000 12.3160144000 
W 1.3410887000 4.0117273000 12.3160144000 
Ti -0.0000713000 2.7531791000 14.7084856000 
Ti 2.6821046000 2.7531820000 14.7084808000 
W 4.0232250000 0.0864910000 14.5184785000 
W 1.3410455000 0.0864866000 14.5184777000 

