&CONTROL
   calculation      = 'scf'
   tstress          = .true.
   tprnfor          = .true.
   outdir           = './Ti2Zn2'
   prefix           = 'Ti2Zn2_beef'
   pseudo_dir       = '../pseudo'
   tefield          = .true.
   dipfield         = .true.
/
&SYSTEM
   celldm(1)        = 1.889726
   ecutwfc          = 55.123963237125
   ecutrho          = 551.23963237125
   nosym            = .true.
   occupations      = 'smearing'
   degauss          = 0.01D0
   smearing         = 'fd'
   input_dft        = 'BEEF-vdW'
   edir             = 3
   emaxpos          = 0.95
   eopreg           = 0.05
   eamp             = 0.01
   ntyp             = 2
   nat              = 12
   ibrav            = 0
/
&ELECTRONS
   electron_maxstep = 500
   conv_thr         = 1e-05
   mixing_mode      = 'plain'
   mixing_beta      = 0.1
   mixing_ndim      = 10
/
&IONS
/
&CELL
/

ATOMIC_SPECIES
Ti 47.867 Ti.pbe-spn-rrkjus_psl.1.0.0.UPF
Zn 65.38 Zn.pbe-spn-rrkjus_psl.1.0.0.UPF

K_POINTS automatic
12 12 1  0 0 0

CELL_PARAMETERS alat
5.56579500000000 0.00000000000000 0.00000000000000
2.63393400000000 4.90310800000000 0.00000000000000
0.00000000000000 0.00000000000000 24.57897200000000

ATOMIC_POSITIONS alat
Ti 0.0000000000 0.0000000000 10.0000000000 
Ti 4.0998647000 2.4515538000 10.0000000000 
Zn 2.7828975000 0.0000000000 10.0000000000 
Zn 1.3169672000 2.4515538000 10.0000000000 
Ti 5.5657950000 3.3281211000 12.2894859000 
Ti 1.4659304000 0.8765673000 12.2894859000 
Zn 2.7828975000 3.3281211000 12.2894859000 
Zn 4.2488279000 0.8765673000 12.2894859000 
Ti 2.9226378000 1.7476202000 14.5150511000 
Ti 7.0224874000 4.1991640000 14.5150224000 
Zn 5.6946837000 1.7414203000 14.6436145000 
Zn 4.2290056000 4.1925476000 14.6436175000 

