&CONTROL
   calculation      = 'scf'
   tstress          = .true.
   tprnfor          = .true.
   outdir           = './V2Au2'
   prefix           = 'V2Au2_beef'
   pseudo_dir       = '../pseudo'
   tefield          = .true.
   dipfield         = .true.
/
&SYSTEM
   celldm(1)        = 1.889726
   ecutwfc          = 55.123963237125
   ecutrho          = 551.23963237125
   nosym            = .true.
   occupations      = 'smearing'
   degauss          = 0.01D0
   smearing         = 'fd'
   input_dft        = 'BEEF-vdW'
   edir             = 3
   emaxpos          = 0.95
   eopreg           = 0.05
   eamp             = 0.01
   ntyp             = 2
   nat              = 12
   ibrav            = 0
/
&ELECTRONS
   electron_maxstep = 500
   conv_thr         = 1e-05
   mixing_mode      = 'plain'
   mixing_beta      = 0.1
   mixing_ndim      = 10
/
&IONS
/
&CELL
/

ATOMIC_SPECIES
V 50.9415 V.pbe-spnl-rrkjus_psl.1.0.0.UPF
Au 196.966569 Au.pbe-n-rrkjus_psl.1.0.0.UPF

K_POINTS automatic
12 12 1  0 0 0

CELL_PARAMETERS alat
5.52592400000000 0.00000000000000 0.00000000000000
-2.76296200000000 4.95993800000000 0.00000000000000
0.00000000000000 0.00000000000000 24.58914200000000

ATOMIC_POSITIONS alat
V 0.0000000000 0.0000000000 10.0000000000 
V 2.7629619000 0.0000000000 10.0000000000 
Au 1.3814810000 2.4799688000 10.0000000000 
Au -1.3814810000 2.4799688000 10.0000000000 
V 2.7629619000 1.5391239000 12.2945710000 
V -0.0000000000 1.5391239000 12.2945710000 
Au -1.3814810000 4.0190927000 12.2945710000 
Au 1.3814810000 4.0190927000 12.2945710000 
V 0.0001498000 2.9779384000 14.3922607000 
V 2.7631054000 2.9780621000 14.3922828000 
Au 4.1446338000 0.6134671000 14.6881332000 
Au 1.3812645000 0.6134716000 14.6881349000 

