&CONTROL
   calculation      = 'scf'
   tstress          = .true.
   tprnfor          = .true.
   outdir           = './V2Cu2'
   prefix           = 'V2Cu2_beef'
   pseudo_dir       = '../pseudo'
   tefield          = .true.
   dipfield         = .true.
/
&SYSTEM
   celldm(1)        = 1.889726
   ecutwfc          = 55.123963237125
   ecutrho          = 551.23963237125
   nosym            = .true.
   occupations      = 'smearing'
   degauss          = 0.01D0
   smearing         = 'fd'
   input_dft        = 'BEEF-vdW'
   edir             = 3
   emaxpos          = 0.95
   eopreg           = 0.05
   eamp             = 0.01
   ntyp             = 2
   nat              = 12
   ibrav            = 0
/
&ELECTRONS
   electron_maxstep = 500
   conv_thr         = 1e-05
   mixing_mode      = 'plain'
   mixing_beta      = 0.1
   mixing_ndim      = 10
/
&IONS
/
&CELL
/

ATOMIC_SPECIES
V 50.9415 V.pbe-spnl-rrkjus_psl.1.0.0.UPF
Cu 63.546 Cu.pbe-dn-rrkjus_psl.1.0.0.UPF

K_POINTS automatic
12 12 1  0 0 0

CELL_PARAMETERS alat
4.98139500000000 0.00000000000000 0.00000000000000
-2.49069800000000 4.80884200000000 0.00000000000000
0.00000000000000 0.00000000000000 24.26116600000000

ATOMIC_POSITIONS alat
V 0.0000000000 0.0000000000 10.0000000000 
V 2.4906976000 0.0000000000 10.0000000000 
Cu 1.2453488000 2.4044208000 10.0000000000 
Cu -1.2453488000 2.4044208000 10.0000000000 
V 2.4906976000 1.2900351000 12.1305830000 
V 0.0000000000 1.2900351000 12.1305830000 
Cu -1.2453488000 3.6944559000 12.1305830000 
Cu 1.2453488000 3.6944559000 12.1305830000 
V 0.0000022000 2.6368325000 14.1613253000 
V 2.4906921000 2.6368265000 14.1613289000 
Cu 3.7359989000 0.2551536000 14.2881354000 
Cu 1.2450637000 0.2551365000 14.2881462000 

