&CONTROL
   calculation      = 'scf'
   tstress          = .true.
   tprnfor          = .true.
   outdir           = './V2Hf2'
   prefix           = 'V2Hf2_beef'
   pseudo_dir       = '../pseudo'
   tefield          = .true.
   dipfield         = .true.
/
&SYSTEM
   celldm(1)        = 1.889726
   ecutwfc          = 55.123963237125
   ecutrho          = 551.23963237125
   nosym            = .true.
   occupations      = 'smearing'
   degauss          = 0.01D0
   smearing         = 'fd'
   input_dft        = 'BEEF-vdW'
   edir             = 3
   emaxpos          = 0.95
   eopreg           = 0.05
   eamp             = 0.01
   ntyp             = 2
   nat              = 12
   ibrav            = 0
/
&ELECTRONS
   electron_maxstep = 500
   conv_thr         = 1e-05
   mixing_mode      = 'plain'
   mixing_beta      = 0.1
   mixing_ndim      = 10
/
&IONS
/
&CELL
/

ATOMIC_SPECIES
V 50.9415 V.pbe-spnl-rrkjus_psl.1.0.0.UPF
Hf 178.49 Hf.pbe-spn-rrkjus_psl.1.0.0.UPF

K_POINTS automatic
12 12 1  0 0 0

CELL_PARAMETERS alat
5.69141400000000 0.00000000000000 0.00000000000000
1.90316600000000 5.36378200000000 0.00000000000000
0.00000000000000 0.00000000000000 24.64885200000000

ATOMIC_POSITIONS alat
V 0.0000000000 0.0000000000 10.0000000000 
V 3.7972902000 2.6818909000 10.0000000000 
Hf 2.8457072000 0.0000000000 10.0000000000 
Hf 0.9515830000 2.6818909000 10.0000000000 
V 5.6914143000 4.0196434000 12.3244262000 
V 1.8941241000 1.3377525000 12.3244262000 
Hf 2.8457072000 4.0196434000 12.3244262000 
Hf 4.7398313000 1.3377525000 12.3244262000 
V 3.7881297000 2.6754213000 14.4931546000 
V 7.5852624000 5.3572013000 14.4931539000 
Hf 6.6354080000 2.6763322000 14.5896728000 
Hf 4.7410962000 5.3584892000 14.5896752000 

