&CONTROL
   calculation      = 'scf'
   tstress          = .true.
   tprnfor          = .true.
   outdir           = './V2Nb2'
   prefix           = 'V2Nb2_beef'
   pseudo_dir       = '../pseudo'
   tefield          = .true.
   dipfield         = .true.
/
&SYSTEM
   celldm(1)        = 1.889726
   ecutwfc          = 55.123963237125
   ecutrho          = 551.23963237125
   nosym            = .true.
   occupations      = 'smearing'
   degauss          = 0.01D0
   smearing         = 'fd'
   input_dft        = 'BEEF-vdW'
   edir             = 3
   emaxpos          = 0.95
   eopreg           = 0.05
   eamp             = 0.01
   ntyp             = 2
   nat              = 12
   ibrav            = 0
/
&ELECTRONS
   electron_maxstep = 500
   conv_thr         = 1e-05
   mixing_mode      = 'plain'
   mixing_beta      = 0.1
   mixing_ndim      = 10
/
&IONS
/
&CELL
/

ATOMIC_SPECIES
V 50.9415 V.pbe-spnl-rrkjus_psl.1.0.0.UPF
Nb 92.90637 Nb.pbe-spn-rrkjus_psl.1.0.0.UPF

K_POINTS automatic
12 12 1  0 0 0

CELL_PARAMETERS alat
5.28976900000000 0.00000000000000 0.00000000000000
-2.64488500000000 5.35204900000000 0.00000000000000
0.00000000000000 0.00000000000000 24.59870700000000

ATOMIC_POSITIONS alat
V 0.0000000000 0.0000000000 10.0000000000 
V 2.6448847000 0.0000000000 10.0000000000 
Nb 1.3224423000 2.6760246000 10.0000000000 
Nb -1.3224423000 2.6760246000 10.0000000000 
V 2.6448847000 1.3070536000 12.2993534000 
V -0.0000000000 1.3070536000 12.2993534000 
Nb -1.3224423000 3.9830782000 12.2993534000 
Nb 1.3224423000 3.9830782000 12.2993534000 
V -0.0000043000 2.5441186000 14.4038275000 
V 2.6448667000 2.5441074000 14.4038222000 
Nb 1.3225125000 5.3485174000 14.6165758000 
Nb -1.3223795000 5.3485309000 14.6165887000 

