&CONTROL
   calculation      = 'scf'
   tstress          = .true.
   tprnfor          = .true.
   outdir           = './V2Os2'
   prefix           = 'V2Os2_beef'
   pseudo_dir       = '../pseudo'
   tefield          = .true.
   dipfield         = .true.
/
&SYSTEM
   celldm(1)        = 1.889726
   ecutwfc          = 55.123963237125
   ecutrho          = 551.23963237125
   nosym            = .true.
   occupations      = 'smearing'
   degauss          = 0.01D0
   smearing         = 'fd'
   input_dft        = 'BEEF-vdW'
   edir             = 3
   emaxpos          = 0.95
   eopreg           = 0.05
   eamp             = 0.01
   ntyp             = 2
   nat              = 12
   ibrav            = 0
/
&ELECTRONS
   electron_maxstep = 500
   conv_thr         = 1e-05
   mixing_mode      = 'plain'
   mixing_beta      = 0.1
   mixing_ndim      = 10
/
&IONS
/
&CELL
/

ATOMIC_SPECIES
V 50.9415 V.pbe-spnl-rrkjus_psl.1.0.0.UPF
Os 190.23 Os.pbe-spn-rrkjus_psl.1.0.0.UPF

K_POINTS automatic
12 12 1  0 0 0

CELL_PARAMETERS alat
5.23333500000000 0.00000000000000 0.00000000000000
1.74800700000000 4.93277500000000 0.00000000000000
0.00000000000000 0.00000000000000 24.27408600000000

ATOMIC_POSITIONS alat
V 0.0000000000 0.0000000000 10.0000000000 
V 3.4906709000 2.4663875000 10.0000000000 
Os 2.6166676000 0.0000000000 10.0000000000 
Os 0.8740034000 2.4663875000 10.0000000000 
V 5.2333351000 3.6976938000 12.1370428000 
V 1.7426642000 1.2313063000 12.1370428000 
Os 2.6166676000 3.6976938000 12.1370428000 
Os 4.3593317000 1.2313063000 12.1370428000 
V 3.4861309000 2.4631818000 14.3347571000 
V 6.9767528000 4.9295302000 14.3347483000 
Os 6.1027173000 2.4631638000 14.1253445000 
Os 4.3601032000 4.9295010000 14.1253495000 

