&CONTROL
   calculation      = 'scf'
   tstress          = .true.
   tprnfor          = .true.
   outdir           = './V2Pd2'
   prefix           = 'V2Pd2_beef'
   pseudo_dir       = '../pseudo'
   tefield          = .true.
   dipfield         = .true.
/
&SYSTEM
   celldm(1)        = 1.889726
   ecutwfc          = 55.123963237125
   ecutrho          = 551.23963237125
   nosym            = .true.
   occupations      = 'smearing'
   degauss          = 0.01D0
   smearing         = 'fd'
   input_dft        = 'BEEF-vdW'
   edir             = 3
   emaxpos          = 0.95
   eopreg           = 0.05
   eamp             = 0.01
   ntyp             = 2
   nat              = 12
   ibrav            = 0
/
&ELECTRONS
   electron_maxstep = 500
   conv_thr         = 1e-05
   mixing_mode      = 'plain'
   mixing_beta      = 0.1
   mixing_ndim      = 10
/
&IONS
/
&CELL
/

ATOMIC_SPECIES
V 50.9415 V.pbe-spnl-rrkjus_psl.1.0.0.UPF
Pd 106.42 Pd.pbe-n-rrkjus_psl.1.0.0.UPF

K_POINTS automatic
12 12 1  0 0 0

CELL_PARAMETERS alat
5.40277900000000 0.00000000000000 0.00000000000000
-2.70139000000000 4.78212700000000 0.00000000000000
0.00000000000000 0.00000000000000 24.45818000000000

ATOMIC_POSITIONS alat
V 0.0000000000 0.0000000000 10.0000000000 
V 2.7013897000 0.0000000000 10.0000000000 
Pd 1.3506949000 2.3910636000 10.0000000000 
Pd -1.3506949000 2.3910636000 10.0000000000 
V 2.7013897000 1.5259959000 12.2290902000 
V 0.0000000000 1.5259959000 12.2290902000 
Pd -1.3506949000 3.9170595000 12.2290902000 
Pd 1.3506949000 3.9170595000 12.2290902000 
V -0.0000002000 3.0232652000 14.2915299000 
V 2.7013896000 3.0232718000 14.2915271000 
Pd 4.0520979000 0.7385394000 14.4824256000 
Pd 1.3506813000 0.7385397000 14.4824263000 

