&CONTROL
   calculation      = 'scf'
   tstress          = .true.
   tprnfor          = .true.
   outdir           = './V2Rh2'
   prefix           = 'V2Rh2_beef'
   pseudo_dir       = '../pseudo'
   tefield          = .true.
   dipfield         = .true.
/
&SYSTEM
   celldm(1)        = 1.889726
   ecutwfc          = 55.123963237125
   ecutrho          = 551.23963237125
   nosym            = .true.
   occupations      = 'smearing'
   degauss          = 0.01D0
   smearing         = 'fd'
   input_dft        = 'BEEF-vdW'
   edir             = 3
   emaxpos          = 0.95
   eopreg           = 0.05
   eamp             = 0.01
   ntyp             = 2
   nat              = 12
   ibrav            = 0
/
&ELECTRONS
   electron_maxstep = 500
   conv_thr         = 1e-05
   mixing_mode      = 'plain'
   mixing_beta      = 0.1
   mixing_ndim      = 10
/
&IONS
/
&CELL
/

ATOMIC_SPECIES
V 50.9415 V.pbe-spnl-rrkjus_psl.1.0.0.UPF
Rh 102.9055 Rh.pbe-spn-rrkjus_psl.1.0.0.UPF

K_POINTS automatic
12 12 1  0 0 0

CELL_PARAMETERS alat
5.33877300000000 0.00000000000000 0.00000000000000
2.51976600000000 4.70672700000000 0.00000000000000
0.00000000000000 0.00000000000000 24.39347400000000

ATOMIC_POSITIONS alat
V 0.0000000000 0.0000000000 10.0000000000 
V 3.9292696000 2.3533636000 10.0000000000 
Rh 2.6693867000 0.0000000000 10.0000000000 
Rh 1.2598830000 2.3533636000 10.0000000000 
V 5.3387733000 3.1975598000 12.1967369000 
V 1.4095037000 0.8441962000 12.1967369000 
Rh 2.6693867000 3.1975598000 12.1967369000 
Rh 4.0788904000 0.8441962000 12.1967369000 
V 2.8075767000 1.6815463000 14.2730790000 
V 6.7368440000 4.0349087000 14.2730913000 
Rh 5.5233105000 1.7093050000 14.3411401000 
Rh 4.1138072000 4.0626686000 14.3411400000 

