&CONTROL
   calculation      = 'scf'
   tstress          = .true.
   tprnfor          = .true.
   outdir           = './V2W2'
   prefix           = 'V2W2_beef'
   pseudo_dir       = '../pseudo'
   tefield          = .true.
   dipfield         = .true.
/
&SYSTEM
   celldm(1)        = 1.889726
   ecutwfc          = 55.123963237125
   ecutrho          = 551.23963237125
   nosym            = .true.
   occupations      = 'smearing'
   degauss          = 0.01D0
   smearing         = 'fd'
   input_dft        = 'BEEF-vdW'
   edir             = 3
   emaxpos          = 0.95
   eopreg           = 0.05
   eamp             = 0.01
   ntyp             = 2
   nat              = 12
   ibrav            = 0
/
&ELECTRONS
   electron_maxstep = 500
   conv_thr         = 1e-05
   mixing_mode      = 'plain'
   mixing_beta      = 0.1
   mixing_ndim      = 10
/
&IONS
/
&CELL
/

ATOMIC_SPECIES
V 50.9415 V.pbe-spnl-rrkjus_psl.1.0.0.UPF
W 183.84 W.pbe-spn-rrkjus_psl.0.2.3.UPF

K_POINTS automatic
12 12 1  0 0 0

CELL_PARAMETERS alat
5.20546000000000 0.00000000000000 0.00000000000000
-2.60273000000000 5.19928800000000 0.00000000000000
0.00000000000000 0.00000000000000 24.50627600000000

ATOMIC_POSITIONS alat
V 0.0000000000 0.0000000000 10.0000000000 
V 2.6027301000 0.0000000000 10.0000000000 
W 1.3013651000 2.5996441000 10.0000000000 
W -1.3013651000 2.5996441000 10.0000000000 
V 2.6027301000 1.3029099000 12.2531378000 
V 0.0000000000 1.3029099000 12.2531378000 
W -1.3013651000 3.9025540000 12.2531378000 
W 1.3013651000 3.9025540000 12.2531378000 
V -0.0000203000 2.5674792000 14.4230891000 
V 2.6027094000 2.5674638000 14.4230793000 
W 3.9040162000 0.0436178000 14.4867687000 
W 1.3014132000 0.0436158000 14.4867675000 

