&CONTROL
   calculation      = 'scf'
   tstress          = .true.
   tprnfor          = .true.
   outdir           = './V2Y2'
   prefix           = 'V2Y2_beef'
   pseudo_dir       = '../pseudo'
   tefield          = .true.
   dipfield         = .true.
/
&SYSTEM
   celldm(1)        = 1.889726
   ecutwfc          = 55.123963237125
   ecutrho          = 551.23963237125
   nosym            = .true.
   occupations      = 'smearing'
   degauss          = 0.01D0
   smearing         = 'fd'
   input_dft        = 'BEEF-vdW'
   edir             = 3
   emaxpos          = 0.95
   eopreg           = 0.05
   eamp             = 0.01
   ntyp             = 2
   nat              = 12
   ibrav            = 0
/
&ELECTRONS
   electron_maxstep = 500
   conv_thr         = 1e-05
   mixing_mode      = 'plain'
   mixing_beta      = 0.1
   mixing_ndim      = 10
/
&IONS
/
&CELL
/

ATOMIC_SPECIES
V 50.9415 V.pbe-spnl-rrkjus_psl.1.0.0.UPF
Y 88.90584 Y.pbe-spn-rrkjus_psl.1.0.0.UPF

K_POINTS automatic
12 12 1  0 0 0

CELL_PARAMETERS alat
6.19875000000000 0.00000000000000 0.00000000000000
2.86518100000000 5.49683900000000 0.00000000000000
0.00000000000000 0.00000000000000 25.11157300000000

ATOMIC_POSITIONS alat
V 0.0000000000 0.0000000000 10.0000000000 
V 4.5319658000 2.7484195000 10.0000000000 
Y 3.0993751000 0.0000000000 10.0000000000 
Y 1.4325907000 2.7484195000 10.0000000000 
V 6.1987502000 3.7592442000 12.5557863000 
V 1.6667844000 1.0108247000 12.5557863000 
Y 3.0993751000 3.7592442000 12.5557863000 
Y 4.7661595000 1.0108247000 12.5557863000 
V 1.3386319000 0.8118599000 14.3715858000 
V 5.8705153000 3.5601402000 14.3714347000 
Y 4.4738467000 0.8336940000 15.7346566000 
Y 2.8080728000 3.5824328000 15.7348307000 

