&CONTROL
   calculation      = 'scf'
   tstress          = .true.
   tprnfor          = .true.
   outdir           = './W2Hg2'
   prefix           = 'W2Hg2_beef'
   pseudo_dir       = '../pseudo'
   tefield          = .true.
   dipfield         = .true.
/
&SYSTEM
   celldm(1)        = 1.889726
   ecutwfc          = 55.123963237125
   ecutrho          = 551.23963237125
   nosym            = .true.
   occupations      = 'smearing'
   degauss          = 0.01D0
   smearing         = 'fd'
   input_dft        = 'BEEF-vdW'
   edir             = 3
   emaxpos          = 0.95
   eopreg           = 0.05
   eamp             = 0.01
   ntyp             = 2
   nat              = 12
   ibrav            = 0
/
&ELECTRONS
   electron_maxstep = 500
   conv_thr         = 1e-05
   mixing_mode      = 'plain'
   mixing_beta      = 0.1
   mixing_ndim      = 10
/
&IONS
/
&CELL
/

ATOMIC_SPECIES
W 183.84 W.pbe-spn-rrkjus_psl.0.2.3.UPF
Hg 200.592 Hg.pbe-n-rrkjus_psl.1.0.0.UPF

K_POINTS automatic
12 12 1  0 0 0

CELL_PARAMETERS alat
5.66422300000000 0.00000000000000 0.00000000000000
-2.83211200000000 5.38952600000000 0.00000000000000
0.00000000000000 0.00000000000000 24.81914000000000

ATOMIC_POSITIONS alat
W 0.0000000000 0.0000000000 10.0000000000 
W 2.8321117000 0.0000000000 10.0000000000 
Hg 1.4160558000 2.6947628000 10.0000000000 
Hg -1.4160558000 2.6947628000 10.0000000000 
W 2.8321117000 1.4882305000 12.4095698000 
W 0.0000000000 1.4882305000 12.4095698000 
Hg -1.4160558000 4.1829933000 12.4095698000 
Hg 1.4160558000 4.1829933000 12.4095698000 
W 0.0000122000 2.5684323000 14.6514031000 
W 2.8321195000 2.5683606000 14.6514217000 
Hg 1.4157525000 5.3505058000 15.3042025000 
Hg -1.4157564000 5.3504967000 15.3041795000 

