&CONTROL
   calculation      = 'scf'
   tstress          = .true.
   tprnfor          = .true.
   outdir           = './Y2Os2'
   prefix           = 'Y2Os2_beef'
   pseudo_dir       = '../pseudo'
   tefield          = .true.
   dipfield         = .true.
/
&SYSTEM
   celldm(1)        = 1.889726
   ecutwfc          = 55.123963237125
   ecutrho          = 551.23963237125
   nosym            = .true.
   occupations      = 'smearing'
   degauss          = 0.01D0
   smearing         = 'fd'
   input_dft        = 'BEEF-vdW'
   edir             = 3
   emaxpos          = 0.95
   eopreg           = 0.05
   eamp             = 0.01
   ntyp             = 2
   nat              = 12
   ibrav            = 0
/
&ELECTRONS
   electron_maxstep = 500
   conv_thr         = 1e-05
   mixing_mode      = 'plain'
   mixing_beta      = 0.1
   mixing_ndim      = 10
/
&IONS
/
&CELL
/

ATOMIC_SPECIES
Y 88.90584 Y.pbe-spn-rrkjus_psl.1.0.0.UPF
Os 190.23 Os.pbe-spn-rrkjus_psl.1.0.0.UPF

K_POINTS automatic
12 12 1  0 0 0

CELL_PARAMETERS alat
5.93102200000000 0.00000000000000 0.00000000000000
1.98128800000000 5.59030600000000 0.00000000000000
0.00000000000000 0.00000000000000 24.84396300000000

ATOMIC_POSITIONS alat
Y 0.0000000000 0.0000000000 10.0000000000 
Y 3.9561548000 2.7951531000 10.0000000000 
Os 2.9655111000 0.0000000000 10.0000000000 
Os 0.9906438000 2.7951531000 10.0000000000 
Y 5.9310221000 4.1904615000 12.4219816000 
Y 1.9748673000 1.3953085000 12.4219816000 
Os 2.9655111000 4.1904615000 12.4219816000 
Os 4.9403783000 1.3953085000 12.4219816000 
Y 3.9512243000 2.7916750000 14.8945561000 
Y 7.9074299000 5.5868645000 14.8945467000 
Os 6.9140068000 2.7897112000 14.7104042000 
Os 4.9390805000 5.5848610000 14.7104326000 

