&CONTROL
   calculation      = 'scf'
   tstress          = .true.
   tprnfor          = .true.
   outdir           = './Y2Pt2'
   prefix           = 'Y2Pt2_beef'
   pseudo_dir       = '../pseudo'
   tefield          = .true.
   dipfield         = .true.
/
&SYSTEM
   celldm(1)        = 1.889726
   ecutwfc          = 55.123963237125
   ecutrho          = 551.23963237125
   nosym            = .true.
   occupations      = 'smearing'
   degauss          = 0.01D0
   smearing         = 'fd'
   input_dft        = 'BEEF-vdW'
   edir             = 3
   emaxpos          = 0.95
   eopreg           = 0.05
   eamp             = 0.01
   ntyp             = 2
   nat              = 12
   ibrav            = 0
/
&ELECTRONS
   electron_maxstep = 500
   conv_thr         = 1e-05
   mixing_mode      = 'plain'
   mixing_beta      = 0.1
   mixing_ndim      = 10
/
&IONS
/
&CELL
/

ATOMIC_SPECIES
Y 88.90584 Y.pbe-spn-rrkjus_psl.1.0.0.UPF
Pt 195.084 Pt.pbe-n-rrkjus_psl.1.0.0.UPF

K_POINTS automatic
12 12 1  0 0 0

CELL_PARAMETERS alat
6.08111800000000 0.00000000000000 0.00000000000000
2.02682500000000 5.73340900000000 0.00000000000000
0.00000000000000 0.00000000000000 24.96514600000000

ATOMIC_POSITIONS alat
Y 0.0000000000 0.0000000000 10.0000000000 
Y 4.0539713000 2.8667044000 10.0000000000 
Pt 3.0405589000 0.0000000000 10.0000000000 
Pt 1.0134123000 2.8667044000 10.0000000000 
Y 6.0811179000 4.3001704000 12.4825731000 
Y 2.0271466000 1.4334660000 12.4825731000 
Pt 3.0405589000 4.3001704000 12.4825731000 
Pt 5.0677055000 1.4334660000 12.4825731000 
Y 4.0542000000 2.8668872000 14.9633652000 
Y 0.0002322000 0.0001388000 14.9633724000 
Pt 1.0136783000 2.8668747000 14.7519795000 
Pt 3.0407932000 0.0001770000 14.7519711000 

