&CONTROL
   calculation      = 'scf'
   tstress          = .true.
   tprnfor          = .true.
   outdir           = './Y2Re2'
   prefix           = 'Y2Re2_beef'
   pseudo_dir       = '../pseudo'
   tefield          = .true.
   dipfield         = .true.
/
&SYSTEM
   celldm(1)        = 1.889726
   ecutwfc          = 55.123963237125
   ecutrho          = 551.23963237125
   nosym            = .true.
   occupations      = 'smearing'
   degauss          = 0.01D0
   smearing         = 'fd'
   input_dft        = 'BEEF-vdW'
   edir             = 3
   emaxpos          = 0.95
   eopreg           = 0.05
   eamp             = 0.01
   ntyp             = 2
   nat              = 12
   ibrav            = 0
/
&ELECTRONS
   electron_maxstep = 500
   conv_thr         = 1e-05
   mixing_mode      = 'plain'
   mixing_beta      = 0.1
   mixing_ndim      = 10
/
&IONS
/
&CELL
/

ATOMIC_SPECIES
Y 88.90584 Y.pbe-spn-rrkjus_psl.1.0.0.UPF
Re 186.207 Re.pbe-spn-rrkjus_psl.1.0.0.UPF

K_POINTS automatic
12 12 1  0 0 0

CELL_PARAMETERS alat
5.98635000000000 0.00000000000000 0.00000000000000
1.91595300000000 5.67146400000000 0.00000000000000
0.00000000000000 0.00000000000000 24.86121700000000

ATOMIC_POSITIONS alat
Y 0.0000000000 0.0000000000 10.0000000000 
Y 3.9511514000 2.8357321000 10.0000000000 
Re 2.9931748000 0.0000000000 10.0000000000 
Re 0.9579766000 2.8357321000 10.0000000000 
Y 5.9863496000 4.2963890000 12.4306085000 
Y 2.0351982000 1.4606570000 12.4306085000 
Re 2.9931748000 4.2963890000 12.4306085000 
Re 5.0283730000 1.4606570000 12.4306085000 
Y 4.7918951000 3.4393218000 15.2188224000 
Y 0.8411919000 0.6038867000 15.2191257000 
Re 2.0297072000 3.6054479000 14.4715565000 
Re 4.0653878000 0.7691975000 14.4711883000 

