&CONTROL
   calculation      = 'scf'
   tstress          = .true.
   tprnfor          = .true.
   outdir           = './Zn2Cd2'
   prefix           = 'Zn2Cd2_beef'
   pseudo_dir       = '../pseudo'
   tefield          = .true.
   dipfield         = .true.
/
&SYSTEM
   celldm(1)        = 1.889726
   ecutwfc          = 55.123963237125
   ecutrho          = 551.23963237125
   nosym            = .true.
   occupations      = 'smearing'
   degauss          = 0.01D0
   smearing         = 'fd'
   input_dft        = 'BEEF-vdW'
   edir             = 3
   emaxpos          = 0.95
   eopreg           = 0.05
   eamp             = 0.01
   ntyp             = 2
   nat              = 12
   ibrav            = 0
/
&ELECTRONS
   electron_maxstep = 500
   conv_thr         = 1e-05
   mixing_mode      = 'plain'
   mixing_beta      = 0.1
   mixing_ndim      = 10
/
&IONS
/
&CELL
/

ATOMIC_SPECIES
Zn 65.38 Zn.pbe-spn-rrkjus_psl.1.0.0.UPF
Cd 112.414 Cd.pbe-n-rrkjus_psl.1.0.0.UPF

K_POINTS automatic
12 12 1  0 0 0

CELL_PARAMETERS alat
6.10047500000000 0.00000000000000 0.00000000000000
2.94441800000000 5.34286400000000 0.00000000000000
0.00000000000000 0.00000000000000 25.00705300000000

ATOMIC_POSITIONS alat
Zn 0.0000000000 0.0000000000 10.0000000000 
Zn 4.5224466000 2.6714319000 10.0000000000 
Cd 3.0502374000 0.0000000000 10.0000000000 
Cd 1.4722092000 2.6714319000 10.0000000000 
Zn 6.1004748000 3.6035810000 12.5035267000 
Zn 1.5780282000 0.9321492000 12.5035267000 
Cd 3.0502374000 3.6035810000 12.5035267000 
Cd 4.6282656000 0.9321492000 12.5035267000 
Zn 3.1380925000 1.8536981000 15.0180763000 
Zn 7.6604895000 4.5251209000 15.0180539000 
Cd 6.2118816000 1.8675931000 15.2824757000 
Cd 4.6338616000 4.5390590000 15.2824249000 

