&CONTROL
   calculation      = 'scf'
   tstress          = .true.
   tprnfor          = .true.
   outdir           = './Zn2Hg2'
   prefix           = 'Zn2Hg2_beef'
   pseudo_dir       = '../pseudo'
   tefield          = .true.
   dipfield         = .true.
/
&SYSTEM
   celldm(1)        = 1.889726
   ecutwfc          = 55.123963237125
   ecutrho          = 551.23963237125
   nosym            = .true.
   occupations      = 'smearing'
   degauss          = 0.01D0
   smearing         = 'fd'
   input_dft        = 'BEEF-vdW'
   edir             = 3
   emaxpos          = 0.95
   eopreg           = 0.05
   eamp             = 0.01
   ntyp             = 2
   nat              = 12
   ibrav            = 0
/
&ELECTRONS
   electron_maxstep = 500
   conv_thr         = 1e-05
   mixing_mode      = 'plain'
   mixing_beta      = 0.1
   mixing_ndim      = 10
/
&IONS
/
&CELL
/

ATOMIC_SPECIES
Zn 65.38 Zn.pbe-spn-rrkjus_psl.1.0.0.UPF
Hg 200.592 Hg.pbe-n-rrkjus_psl.1.0.0.UPF

K_POINTS automatic
12 12 1  0 0 0

CELL_PARAMETERS alat
6.29493800000000 0.00000000000000 0.00000000000000
2.33224700000000 5.84695400000000 0.00000000000000
0.00000000000000 0.00000000000000 25.19366100000000

ATOMIC_POSITIONS alat
Zn 0.0000000000 0.0000000000 10.0000000000 
Zn 4.3135929000 2.9234771000 10.0000000000 
Hg 3.1474692000 0.0000000000 10.0000000000 
Hg 1.1661236000 2.9234771000 10.0000000000 
Zn 6.2949385000 4.2663064000 12.5968304000 
Zn 1.9813456000 1.3428292000 12.5968304000 
Hg 3.1474692000 4.2663064000 12.5968304000 
Hg 5.1288149000 1.3428292000 12.5968304000 
Zn 3.9399930000 2.6701767000 15.0844176000 
Zn 8.2639457000 5.6008401000 15.0856040000 
Hg 7.1553619000 2.7188828000 15.9771293000 
Hg 5.1763795000 5.6387788000 15.9772312000 

