&CONTROL
   calculation      = 'scf'
   tstress          = .true.
   tprnfor          = .true.
   outdir           = './Zn2Pt2'
   prefix           = 'Zn2Pt2_beef'
   pseudo_dir       = '../pseudo'
   tefield          = .true.
   dipfield         = .true.
/
&SYSTEM
   celldm(1)        = 1.889726
   ecutwfc          = 55.123963237125
   ecutrho          = 551.23963237125
   nosym            = .true.
   occupations      = 'smearing'
   degauss          = 0.01D0
   smearing         = 'fd'
   input_dft        = 'BEEF-vdW'
   edir             = 3
   emaxpos          = 0.95
   eopreg           = 0.05
   eamp             = 0.01
   ntyp             = 2
   nat              = 12
   ibrav            = 0
/
&ELECTRONS
   electron_maxstep = 500
   conv_thr         = 1e-05
   mixing_mode      = 'plain'
   mixing_beta      = 0.1
   mixing_ndim      = 10
/
&IONS
/
&CELL
/

ATOMIC_SPECIES
Zn 65.38 Zn.pbe-spn-rrkjus_psl.1.0.0.UPF
Pt 195.084 Pt.pbe-n-rrkjus_psl.1.0.0.UPF

K_POINTS automatic
12 12 1  0 0 0

CELL_PARAMETERS alat
5.41354100000000 0.00000000000000 0.00000000000000
2.28777200000000 4.90637600000000 0.00000000000000
0.00000000000000 0.00000000000000 24.48407800000000

ATOMIC_POSITIONS alat
Zn 0.0000000000 0.0000000000 10.0000000000 
Zn 3.8506563000 2.4531882000 10.0000000000 
Pt 2.7067705000 0.0000000000 10.0000000000 
Pt 1.1438858000 2.4531882000 10.0000000000 
Zn 5.4135411000 3.4488757000 12.2420389000 
Zn 1.5628848000 0.9956875000 12.2420389000 
Pt 2.7067705000 3.4488757000 12.2420389000 
Pt 4.2696553000 0.9956875000 12.2420389000 
Zn 3.2522155000 2.0719241000 14.5911679000 
Zn 7.1028676000 4.5251198000 14.5911626000 
Pt 5.9691221000 2.0783890000 14.3978774000 
Pt 4.4062347000 4.5315741000 14.3978788000 

