&CONTROL
   calculation      = 'scf'
   tstress          = .true.
   tprnfor          = .true.
   outdir           = './Zn2Tc2'
   prefix           = 'Zn2Tc2_beef'
   pseudo_dir       = '../pseudo'
   tefield          = .true.
   dipfield         = .true.
/
&SYSTEM
   celldm(1)        = 1.889726
   ecutwfc          = 55.123963237125
   ecutrho          = 551.23963237125
   nosym            = .true.
   occupations      = 'smearing'
   degauss          = 0.01D0
   smearing         = 'fd'
   input_dft        = 'BEEF-vdW'
   edir             = 3
   emaxpos          = 0.95
   eopreg           = 0.05
   eamp             = 0.01
   ntyp             = 2
   nat              = 12
   ibrav            = 0
/
&ELECTRONS
   electron_maxstep = 500
   conv_thr         = 1e-05
   mixing_mode      = 'plain'
   mixing_beta      = 0.1
   mixing_ndim      = 10
/
&IONS
/
&CELL
/

ATOMIC_SPECIES
Zn 65.38 Zn.pbe-spn-rrkjus_psl.1.0.0.UPF
Tc 97.90721 Tc.pbe-spn-rrkjus_psl.0.3.0.UPF

K_POINTS automatic
12 12 1  0 0 0

CELL_PARAMETERS alat
5.25399800000000 0.00000000000000 0.00000000000000
-2.62699900000000 4.94144700000000 0.00000000000000
0.00000000000000 0.00000000000000 24.45002900000000

ATOMIC_POSITIONS alat
Zn 0.0000000000 0.0000000000 10.0000000000 
Zn 2.6269988000 0.0000000000 10.0000000000 
Tc 1.3134994000 2.4707236000 10.0000000000 
Tc -1.3134994000 2.4707236000 10.0000000000 
Zn 2.6269988000 1.3965793000 12.2250144000 
Zn 0.0000000000 1.3965793000 12.2250144000 
Tc -1.3134994000 3.8673029000 12.2250144000 
Tc 1.3134994000 3.8673029000 12.2250144000 
Zn 0.0000380000 2.5809013000 14.6592521000 
Zn 2.6270818000 2.5809025000 14.6592470000 
Tc 3.9404317000 0.0709182000 14.3083087000 
Tc 1.3134336000 0.0708550000 14.3083073000 

