&CONTROL
   calculation      = 'scf'
   tstress          = .true.
   tprnfor          = .true.
   outdir           = './Zn2Y2'
   prefix           = 'Zn2Y2_beef'
   pseudo_dir       = '../pseudo'
   tefield          = .true.
   dipfield         = .true.
/
&SYSTEM
   celldm(1)        = 1.889726
   ecutwfc          = 55.123963237125
   ecutrho          = 551.23963237125
   nosym            = .true.
   occupations      = 'smearing'
   degauss          = 0.01D0
   smearing         = 'fd'
   input_dft        = 'BEEF-vdW'
   edir             = 3
   emaxpos          = 0.95
   eopreg           = 0.05
   eamp             = 0.01
   ntyp             = 2
   nat              = 12
   ibrav            = 0
/
&ELECTRONS
   electron_maxstep = 500
   conv_thr         = 1e-05
   mixing_mode      = 'plain'
   mixing_beta      = 0.1
   mixing_ndim      = 10
/
&IONS
/
&CELL
/

ATOMIC_SPECIES
Zn 65.38 Zn.pbe-spn-rrkjus_psl.1.0.0.UPF
Y 88.90584 Y.pbe-spn-rrkjus_psl.1.0.0.UPF

K_POINTS automatic
12 12 1  0 0 0

CELL_PARAMETERS alat
6.20819800000000 0.00000000000000 0.00000000000000
2.06938900000000 5.85314900000000 0.00000000000000
0.00000000000000 0.00000000000000 25.06896900000000

ATOMIC_POSITIONS alat
Zn 0.0000000000 0.0000000000 10.0000000000 
Zn 4.1387932000 2.9265744000 10.0000000000 
Y 3.1040989000 0.0000000000 10.0000000000 
Y 1.0346943000 2.9265744000 10.0000000000 
Zn 6.2081978000 4.3898673000 12.5344845000 
Zn 2.0694046000 1.4632929000 12.5344845000 
Y 3.1040989000 4.3898673000 12.5344845000 
Y 5.1735035000 1.4632929000 12.5344845000 
Zn 4.1387136000 2.9266343000 15.0213703000 
Zn 2.0694577000 5.8531127000 15.0213719000 
Y 7.2428901000 2.9265735000 15.0142074000 
Y 3.1041352000 0.0000072000 15.0141762000 

