&CONTROL
   calculation      = 'scf'
   tstress          = .true.
   tprnfor          = .true.
   outdir           = './Zn2Zr2'
   prefix           = 'Zn2Zr2_beef'
   pseudo_dir       = '../pseudo'
   tefield          = .true.
   dipfield         = .true.
/
&SYSTEM
   celldm(1)        = 1.889726
   ecutwfc          = 55.123963237125
   ecutrho          = 551.23963237125
   nosym            = .true.
   occupations      = 'smearing'
   degauss          = 0.01D0
   smearing         = 'fd'
   input_dft        = 'BEEF-vdW'
   edir             = 3
   emaxpos          = 0.95
   eopreg           = 0.05
   eamp             = 0.01
   ntyp             = 2
   nat              = 12
   ibrav            = 0
/
&ELECTRONS
   electron_maxstep = 500
   conv_thr         = 1e-05
   mixing_mode      = 'plain'
   mixing_beta      = 0.1
   mixing_ndim      = 10
/
&IONS
/
&CELL
/

ATOMIC_SPECIES
Zn 65.38 Zn.pbe-spn-rrkjus_psl.1.0.0.UPF
Zr 91.224 Zr.pbe-spn-rrkjus_psl.1.0.0.UPF

K_POINTS automatic
12 12 1  0 0 0

CELL_PARAMETERS alat
5.79267800000000 0.00000000000000 0.00000000000000
1.93081100000000 5.46141800000000 0.00000000000000
0.00000000000000 0.00000000000000 24.72967700000000

ATOMIC_POSITIONS alat
Zn 0.0000000000 0.0000000000 10.0000000000 
Zn 3.8617446000 2.7307091000 10.0000000000 
Zr 2.8963391000 0.0000000000 10.0000000000 
Zr 0.9654055000 2.7307091000 10.0000000000 
Zn 5.7926781000 4.0961069000 12.3648384000 
Zn 1.9309335000 1.3653978000 12.3648384000 
Zr 2.8963391000 4.0961069000 12.3648384000 
Zr 4.8272726000 1.3653978000 12.3648384000 
Zn 3.8618809000 2.7307433000 14.8796211000 
Zn 0.0000411000 0.0000857000 14.8796247000 
Zr 0.9655011000 2.7307647000 14.6330817000 
Zr 2.8963827000 0.0000478000 14.6330853000 

