&CONTROL
   calculation      = 'scf'
   tstress          = .true.
   tprnfor          = .true.
   outdir           = './Zr2Ag2'
   prefix           = 'Zr2Ag2_beef'
   pseudo_dir       = '../pseudo'
   tefield          = .true.
   dipfield         = .true.
/
&SYSTEM
   celldm(1)        = 1.889726
   ecutwfc          = 55.123963237125
   ecutrho          = 551.23963237125
   nosym            = .true.
   occupations      = 'smearing'
   degauss          = 0.01D0
   smearing         = 'fd'
   input_dft        = 'BEEF-vdW'
   edir             = 3
   emaxpos          = 0.95
   eopreg           = 0.05
   eamp             = 0.01
   ntyp             = 2
   nat              = 12
   ibrav            = 0
/
&ELECTRONS
   electron_maxstep = 500
   conv_thr         = 1e-05
   mixing_mode      = 'plain'
   mixing_beta      = 0.1
   mixing_ndim      = 10
/
&IONS
/
&CELL
/

ATOMIC_SPECIES
Zr 91.224 Zr.pbe-spn-rrkjus_psl.1.0.0.UPF
Ag 107.8682 Ag.pbe-n-rrkjus_psl.1.0.0.UPF

K_POINTS automatic
12 12 1  0 0 0

CELL_PARAMETERS alat
6.05761100000000 0.00000000000000 0.00000000000000
-3.02880500000000 5.36049000000000 0.00000000000000
0.00000000000000 0.00000000000000 24.99798000000000

ATOMIC_POSITIONS alat
Zr 0.0000000000 0.0000000000 10.0000000000 
Zr 3.0288055000 0.0000000000 10.0000000000 
Ag 1.5144027000 2.6802450000 10.0000000000 
Ag -1.5144027000 2.6802450000 10.0000000000 
Zr 3.0288055000 1.7113478000 12.4989901000 
Zr -0.0000000000 1.7113478000 12.4989901000 
Ag -1.5144027000 4.3915928000 12.4989901000 
Ag 1.5144027000 4.3915928000 12.4989901000 
Zr -0.0000010000 3.4400861000 14.8835439000 
Zr 3.0288057000 3.4400855000 14.8835434000 
Ag 4.5432084000 0.7590102000 15.0219268000 
Ag 1.5144021000 0.7590124000 15.0219280000 

