&CONTROL
   calculation      = 'scf'
   tstress          = .true.
   tprnfor          = .true.
   outdir           = './Zr2Au2'
   prefix           = 'Zr2Au2_beef'
   pseudo_dir       = '../pseudo'
   tefield          = .true.
   dipfield         = .true.
/
&SYSTEM
   celldm(1)        = 1.889726
   ecutwfc          = 55.123963237125
   ecutrho          = 551.23963237125
   nosym            = .true.
   occupations      = 'smearing'
   degauss          = 0.01D0
   smearing         = 'fd'
   input_dft        = 'BEEF-vdW'
   edir             = 3
   emaxpos          = 0.95
   eopreg           = 0.05
   eamp             = 0.01
   ntyp             = 2
   nat              = 12
   ibrav            = 0
/
&ELECTRONS
   electron_maxstep = 500
   conv_thr         = 1e-05
   mixing_mode      = 'plain'
   mixing_beta      = 0.1
   mixing_ndim      = 10
/
&IONS
/
&CELL
/

ATOMIC_SPECIES
Zr 91.224 Zr.pbe-spn-rrkjus_psl.1.0.0.UPF
Au 196.966569 Au.pbe-n-rrkjus_psl.1.0.0.UPF

K_POINTS automatic
12 12 1  0 0 0

CELL_PARAMETERS alat
6.03242200000000 0.00000000000000 0.00000000000000
2.80799000000000 5.33903600000000 0.00000000000000
0.00000000000000 0.00000000000000 24.97123200000000

ATOMIC_POSITIONS alat
Zr 0.0000000000 0.0000000000 10.0000000000 
Zr 4.4202059000 2.6695182000 10.0000000000 
Au 3.0162110000 0.0000000000 10.0000000000 
Au 1.4039949000 2.6695182000 10.0000000000 
Zr 6.0324221000 3.6431924000 12.4856158000 
Zr 1.6122161000 0.9736742000 12.4856158000 
Au 3.0162110000 3.6431924000 12.4856158000 
Au 4.6284272000 0.9736742000 12.4856158000 
Zr 3.2338689000 1.9530492000 14.8684749000 
Zr 7.6540782000 4.6225688000 14.8684780000 
Au 6.2612493000 1.9597949000 14.9618768000 
Au 4.6490496000 4.6293238000 14.9618617000 

