&CONTROL
   calculation      = 'scf'
   tstress          = .true.
   tprnfor          = .true.
   outdir           = './Zr2Cd2'
   prefix           = 'Zr2Cd2_beef'
   pseudo_dir       = '../pseudo'
   tefield          = .true.
   dipfield         = .true.
/
&SYSTEM
   celldm(1)        = 1.889726
   ecutwfc          = 55.123963237125
   ecutrho          = 551.23963237125
   nosym            = .true.
   occupations      = 'smearing'
   degauss          = 0.01D0
   smearing         = 'fd'
   input_dft        = 'BEEF-vdW'
   edir             = 3
   emaxpos          = 0.95
   eopreg           = 0.05
   eamp             = 0.01
   ntyp             = 2
   nat              = 12
   ibrav            = 0
/
&ELECTRONS
   electron_maxstep = 500
   conv_thr         = 1e-05
   mixing_mode      = 'plain'
   mixing_beta      = 0.1
   mixing_ndim      = 10
/
&IONS
/
&CELL
/

ATOMIC_SPECIES
Zr 91.224 Zr.pbe-spn-rrkjus_psl.1.0.0.UPF
Cd 112.414 Cd.pbe-n-rrkjus_psl.1.0.0.UPF

K_POINTS automatic
12 12 1  0 0 0

CELL_PARAMETERS alat
6.28385700000000 0.00000000000000 0.00000000000000
-3.14192900000000 5.44726200000000 0.00000000000000
0.00000000000000 0.00000000000000 25.13323400000000

ATOMIC_POSITIONS alat
Zr 0.0000000000 0.0000000000 10.0000000000 
Zr 3.1419287000 0.0000000000 10.0000000000 
Cd 1.5709643000 2.7236312000 10.0000000000 
Cd -1.5709643000 2.7236312000 10.0000000000 
Zr 3.1419287000 1.8122343000 12.5666170000 
Zr 0.0000000000 1.8122343000 12.5666170000 
Cd -1.5709643000 4.5358655000 12.5666170000 
Cd 1.5709643000 4.5358655000 12.5666170000 
Zr 0.0000012000 3.6045886000 15.0417425000 
Zr 3.1419320000 3.6045591000 15.0417529000 
Cd 4.7129212000 0.8764970000 15.2601501000 
Cd 1.5709612000 0.8765052000 15.2601407000 

