&CONTROL
   calculation      = 'scf'
   tstress          = .true.
   tprnfor          = .true.
   outdir           = './Zr2Hf2'
   prefix           = 'Zr2Hf2_beef'
   pseudo_dir       = '../pseudo'
   tefield          = .true.
   dipfield         = .true.
/
&SYSTEM
   celldm(1)        = 1.889726
   ecutwfc          = 55.123963237125
   ecutrho          = 551.23963237125
   nosym            = .true.
   occupations      = 'smearing'
   degauss          = 0.01D0
   smearing         = 'fd'
   input_dft        = 'BEEF-vdW'
   edir             = 3
   emaxpos          = 0.95
   eopreg           = 0.05
   eamp             = 0.01
   ntyp             = 2
   nat              = 12
   ibrav            = 0
/
&ELECTRONS
   electron_maxstep = 500
   conv_thr         = 1e-05
   mixing_mode      = 'plain'
   mixing_beta      = 0.1
   mixing_ndim      = 10
/
&IONS
/
&CELL
/

ATOMIC_SPECIES
Zr 91.224 Zr.pbe-spn-rrkjus_psl.1.0.0.UPF
Hf 178.49 Hf.pbe-spn-rrkjus_psl.1.0.0.UPF

K_POINTS automatic
12 12 1  0 0 0

CELL_PARAMETERS alat
6.36712400000000 0.00000000000000 0.00000000000000
-3.18356200000000 5.51414300000000 0.00000000000000
0.00000000000000 0.00000000000000 25.19875900000000

ATOMIC_POSITIONS alat
Zr 0.0000000000 0.0000000000 10.0000000000 
Zr 3.1835621000 0.0000000000 10.0000000000 
Hf 1.5917811000 2.7570713000 10.0000000000 
Hf -1.5917811000 2.7570713000 10.0000000000 
Zr 3.1835621000 1.8380134000 12.5993797000 
Zr -0.0000000000 1.8380134000 12.5993797000 
Hf -1.5917811000 4.5950847000 12.5993797000 
Hf 1.5917811000 4.5950847000 12.5993797000 
Zr 0.0000113000 3.6951813000 15.0894344000 
Zr 3.1835531000 3.6951908000 15.0894470000 
Hf 4.7752051000 0.9007493000 15.0712989000 
Hf 1.5919182000 0.9007640000 15.0713094000 

