&CONTROL
   calculation      = 'scf'
   tstress          = .true.
   tprnfor          = .true.
   outdir           = './Zr2Mo2'
   prefix           = 'Zr2Mo2_beef'
   pseudo_dir       = '../pseudo'
   tefield          = .true.
   dipfield         = .true.
/
&SYSTEM
   celldm(1)        = 1.889726
   ecutwfc          = 55.123963237125
   ecutrho          = 551.23963237125
   nosym            = .true.
   occupations      = 'smearing'
   degauss          = 0.01D0
   smearing         = 'fd'
   input_dft        = 'BEEF-vdW'
   edir             = 3
   emaxpos          = 0.95
   eopreg           = 0.05
   eamp             = 0.01
   ntyp             = 2
   nat              = 12
   ibrav            = 0
/
&ELECTRONS
   electron_maxstep = 500
   conv_thr         = 1e-05
   mixing_mode      = 'plain'
   mixing_beta      = 0.1
   mixing_ndim      = 10
/
&IONS
/
&CELL
/

ATOMIC_SPECIES
Zr 91.224 Zr.pbe-spn-rrkjus_psl.1.0.0.UPF
Mo 95.95 Mo.pbe-spn-rrkjus_psl.1.0.0.UPF

K_POINTS automatic
12 12 1  0 0 0

CELL_PARAMETERS alat
5.79899900000000 0.00000000000000 0.00000000000000
1.93095600000000 5.46807000000000 0.00000000000000
0.00000000000000 0.00000000000000 24.73423500000000

ATOMIC_POSITIONS alat
Zr 0.0000000000 0.0000000000 10.0000000000 
Zr 3.8649773000 2.7340352000 10.0000000000 
Mo 2.8994993000 0.0000000000 10.0000000000 
Mo 0.9654780000 2.7340352000 10.0000000000 
Zr 5.7989986000 4.1021369000 12.3671176000 
Zr 1.9340213000 1.3681017000 12.3671176000 
Mo 2.8994993000 4.1021369000 12.3671176000 
Mo 4.8335206000 1.3681017000 12.3671176000 
Zr 3.8670909000 2.7355395000 14.7134750000 
Zr 0.0021037000 0.0014839000 14.7134752000 
Mo 0.9681892000 2.7359512000 14.6343841000 
Mo 2.9022062000 0.0019197000 14.6343886000 

