&CONTROL
   calculation      = 'scf'
   tstress          = .true.
   tprnfor          = .true.
   outdir           = './Zr2Rh2'
   prefix           = 'Zr2Rh2_beef'
   pseudo_dir       = '../pseudo'
   tefield          = .true.
   dipfield         = .true.
/
&SYSTEM
   celldm(1)        = 1.889726
   ecutwfc          = 55.123963237125
   ecutrho          = 551.23963237125
   nosym            = .true.
   occupations      = 'smearing'
   degauss          = 0.01D0
   smearing         = 'fd'
   input_dft        = 'BEEF-vdW'
   edir             = 3
   emaxpos          = 0.95
   eopreg           = 0.05
   eamp             = 0.01
   ntyp             = 2
   nat              = 12
   ibrav            = 0
/
&ELECTRONS
   electron_maxstep = 500
   conv_thr         = 1e-05
   mixing_mode      = 'plain'
   mixing_beta      = 0.1
   mixing_ndim      = 10
/
&IONS
/
&CELL
/

ATOMIC_SPECIES
Zr 91.224 Zr.pbe-spn-rrkjus_psl.1.0.0.UPF
Rh 102.9055 Rh.pbe-spn-rrkjus_psl.1.0.0.UPF

K_POINTS automatic
12 12 1  0 0 0

CELL_PARAMETERS alat
5.72453800000000 0.00000000000000 0.00000000000000
1.99775700000000 5.36463400000000 0.00000000000000
0.00000000000000 0.00000000000000 24.69856500000000

ATOMIC_POSITIONS alat
Zr 0.0000000000 0.0000000000 10.0000000000 
Zr 3.8611472000 2.6823170000 10.0000000000 
Rh 2.8622688000 0.0000000000 10.0000000000 
Rh 0.9988785000 2.6823170000 10.0000000000 
Zr 5.7245375000 3.9768036000 12.3492826000 
Zr 1.8633903000 1.2944866000 12.3492826000 
Rh 2.8622688000 3.9768036000 12.3492826000 
Rh 4.7256591000 1.2944866000 12.3492826000 
Zr 3.7954983000 2.6367125000 14.7126777000 
Zr 7.6566471000 5.3190286000 14.7126764000 
Rh 6.6596736000 2.6380344000 14.4782758000 
Rh 4.7962813000 5.3203519000 14.4782758000 

