&CONTROL
   calculation      = 'scf'
   tstress          = .true.
   tprnfor          = .true.
   outdir           = './Zr2W2'
   prefix           = 'Zr2W2_beef'
   pseudo_dir       = '../pseudo'
   tefield          = .true.
   dipfield         = .true.
/
&SYSTEM
   celldm(1)        = 1.889726
   ecutwfc          = 55.123963237125
   ecutrho          = 551.23963237125
   nosym            = .true.
   occupations      = 'smearing'
   degauss          = 0.01D0
   smearing         = 'fd'
   input_dft        = 'BEEF-vdW'
   edir             = 3
   emaxpos          = 0.95
   eopreg           = 0.05
   eamp             = 0.01
   ntyp             = 2
   nat              = 12
   ibrav            = 0
/
&ELECTRONS
   electron_maxstep = 500
   conv_thr         = 1e-05
   mixing_mode      = 'plain'
   mixing_beta      = 0.1
   mixing_ndim      = 10
/
&IONS
/
&CELL
/

ATOMIC_SPECIES
Zr 91.224 Zr.pbe-spn-rrkjus_psl.1.0.0.UPF
W 183.84 W.pbe-spn-rrkjus_psl.0.2.3.UPF

K_POINTS automatic
12 12 1  0 0 0

CELL_PARAMETERS alat
5.56691700000000 0.00000000000000 0.00000000000000
-2.78345900000000 5.66695700000000 0.00000000000000
0.00000000000000 0.00000000000000 24.84912900000000

ATOMIC_POSITIONS alat
Zr 0.0000000000 0.0000000000 10.0000000000 
Zr 2.7834586000 0.0000000000 10.0000000000 
W 1.3917293000 2.8334783000 10.0000000000 
W -1.3917293000 2.8334783000 10.0000000000 
Zr 2.7834586000 1.3671609000 12.4245645000 
Zr -0.0000000000 1.3671609000 12.4245645000 
W -1.3917293000 4.2006393000 12.4245645000 
W 1.3917293000 4.2006393000 12.4245645000 
Zr -0.0000021000 2.9156299000 14.9833667000 
Zr 2.7834516000 2.9156036000 14.9833641000 
W 1.3917164000 5.5935275000 14.6267808000 
W -1.3916993000 5.5935313000 14.6267783000 

