&CONTROL
   calculation      = 'scf'
   tstress          = .true.
   tprnfor          = .true.
   outdir           = './Zr2Y2'
   prefix           = 'Zr2Y2_beef'
   pseudo_dir       = '../pseudo'
   tefield          = .true.
   dipfield         = .true.
/
&SYSTEM
   celldm(1)        = 1.889726
   ecutwfc          = 55.123963237125
   ecutrho          = 551.23963237125
   nosym            = .true.
   occupations      = 'smearing'
   degauss          = 0.01D0
   smearing         = 'fd'
   input_dft        = 'BEEF-vdW'
   edir             = 3
   emaxpos          = 0.95
   eopreg           = 0.05
   eamp             = 0.01
   ntyp             = 2
   nat              = 12
   ibrav            = 0
/
&ELECTRONS
   electron_maxstep = 500
   conv_thr         = 1e-05
   mixing_mode      = 'plain'
   mixing_beta      = 0.1
   mixing_ndim      = 10
/
&IONS
/
&CELL
/

ATOMIC_SPECIES
Zr 91.224 Zr.pbe-spn-rrkjus_psl.1.0.0.UPF
Y 88.90584 Y.pbe-spn-rrkjus_psl.1.0.0.UPF

K_POINTS automatic
12 12 1  0 0 0

CELL_PARAMETERS alat
6.62758300000000 0.00000000000000 0.00000000000000
-3.31379200000000 5.94549100000000 0.00000000000000
0.00000000000000 0.00000000000000 25.50268000000000

ATOMIC_POSITIONS alat
Zr 0.0000000000 0.0000000000 10.0000000000 
Zr 3.3137915000 0.0000000000 10.0000000000 
Y 1.6568958000 2.9727457000 10.0000000000 
Y -1.6568958000 2.9727457000 10.0000000000 
Zr 3.3137915000 1.8469817000 12.7513402000 
Zr 0.0000000000 1.8469817000 12.7513402000 
Y -1.6568958000 4.8197275000 12.7513402000 
Y 1.6568958000 4.8197275000 12.7513402000 
Zr -0.0000014000 3.6460840000 15.2583379000 
Zr 3.3137781000 3.6460906000 15.2583442000 
Y 4.9706882000 0.7818528000 15.5367631000 
Y 1.6568877000 0.7818579000 15.5367898000 

