&INPUTPP
prefix = 'Sc750_beef',
outdir = './Sc750',
filplot = 'Sc-wf.dat',
plot_num = 11
/
