&PROJWFC
prefix = 'Sc750_beef',
outdir = './Sc750',
degauss = 0.001,
DeltaE = 0.001,
filpdos = 'Sc.pdos.out',
filproj = 'Sc.proj.out',
/
