&DOS
prefix = 'Ta750_beef',
outdir = './Ta750',
degauss = 0.001,
DeltaE = 0.001,
fildos = 'Ta.dos.out',
/
