&INPUTPP
prefix = 'Ta750_beef',
outdir = './Ta750',
filplot = 'Ta-wf.dat',
plot_num = 11
/
