&PROJWFC
prefix = 'Ta750_beef',
outdir = './Ta750',
degauss = 0.001,
DeltaE = 0.001,
filpdos = 'Ta.pdos.out',
filproj = 'Ta.proj.out',
/
