&DOS
prefix = 'Tc750_beef',
outdir = './Tc750',
degauss = 0.001,
DeltaE = 0.001,
fildos = 'Tc.dos.out',
/
