&PROJWFC
prefix = 'Tc750_beef',
outdir = './Tc750',
degauss = 0.001,
DeltaE = 0.001,
filpdos = 'Tc.pdos.out',
filproj = 'Tc.proj.out',
/
