&INPUTPP
prefix = 'Tc750_beef',
outdir = './Tc750',
filplot = 'Tc-wf.dat',
plot_num = 11
/
