&DOS
prefix = 'Ti750_beef',
outdir = './Ti750',
degauss = 0.001,
DeltaE = 0.001,
fildos = 'Ti.dos.out',
/
