&PROJWFC
prefix = 'Ti750_beef',
outdir = './Ti750',
degauss = 0.001,
DeltaE = 0.001,
filpdos = 'Ti.pdos.out',
filproj = 'Ti.proj.out',
/
