&INPUTPP
prefix = 'Ti750_beef',
outdir = './Ti750',
filplot = 'Ti-wf.dat',
plot_num = 11
/
