&PROJWFC
prefix = 'V750_beef',
outdir = './V750',
degauss = 0.001,
DeltaE = 0.001,
filpdos = 'V.pdos.out',
filproj = 'V.proj.out',
/
