&INPUTPP
prefix = 'V750_beef',
outdir = './V750',
filplot = 'V-wf.dat',
plot_num = 11
/
