&DOS
prefix = 'W750_beef',
outdir = './W750',
degauss = 0.001,
DeltaE = 0.001,
fildos = 'W.dos.out',
/
