&PROJWFC
prefix = 'W750_beef',
outdir = './W750',
degauss = 0.001,
DeltaE = 0.001,
filpdos = 'W.pdos.out',
filproj = 'W.proj.out',
/
