&INPUTPP
prefix = 'W750_beef',
outdir = './W750',
filplot = 'W-wf.dat',
plot_num = 11
/
