&DOS
prefix = 'Y750_beef',
outdir = './Y750',
degauss = 0.001,
DeltaE = 0.001,
fildos = 'Y.dos.out',
/
