&PROJWFC
prefix = 'Y750_beef',
outdir = './Y750',
degauss = 0.001,
DeltaE = 0.001,
filpdos = 'Y.pdos.out',
filproj = 'Y.proj.out',
/
