&INPUTPP
prefix = 'Y750_beef',
outdir = './Y750',
filplot = 'Y-wf.dat',
plot_num = 11
/
