&DOS
prefix = 'Zn750_beef',
outdir = './Zn750',
degauss = 0.001,
DeltaE = 0.001,
fildos = 'Zn.dos.out',
/
