&PROJWFC
prefix = 'Zn750_beef',
outdir = './Zn750',
degauss = 0.001,
DeltaE = 0.001,
filpdos = 'Zn.pdos.out',
filproj = 'Zn.proj.out',
/
