&INPUTPP
prefix = 'Zn750_beef',
outdir = './Zn750',
filplot = 'Zn-wf.dat',
plot_num = 11
/
