&DOS
prefix = 'Zr750_beef',
outdir = './Zr750',
degauss = 0.001,
DeltaE = 0.001,
fildos = 'Zr.dos.out',
/
