&INPUTPP
prefix = 'Zr750_beef',
outdir = './Zr750',
filplot = 'Zr-wf.dat',
plot_num = 11
/
