&PROJWFC
prefix = 'Zr750_beef',
outdir = './Zr750',
degauss = 0.001,
DeltaE = 0.001,
filpdos = 'Zr.pdos.out',
filproj = 'Zr.proj.out',
/
