&CONTROL
   calculation      = 'scf'
   tstress          = .true.
   tprnfor          = .true.
   outdir           = './Cr2Ni2'
   prefix           = 'Cr2Ni2_beef'
   pseudo_dir       = '../pseudo'
   tefield          = .true.
   dipfield         = .true.
/
&SYSTEM
   celldm(1)        = 1.889726
   ecutwfc          = 55.123963237125
   ecutrho          = 551.23963237125
   nosym            = .true.
   occupations      = 'smearing'
   degauss          = 0.01D0
   smearing         = 'fd'
   input_dft        = 'BEEF-vdW'
   edir             = 3
   emaxpos          = 0.95
   eopreg           = 0.05
   eamp             = 0.01
   nspin            = 2
   starting_magnetization(1) = 0.0
   starting_magnetization(2) = 0.5
   ntyp             = 2
   nat              = 12
   ibrav            = 0
/
&ELECTRONS
   electron_maxstep = 500
   conv_thr         = 1e-05
   mixing_mode      = 'plain'
   mixing_beta      = 0.1
   mixing_ndim      = 10
/
&IONS
/
&CELL
/

ATOMIC_SPECIES
Cr  51.9961 Cr.pbe-spn-rrkjus_psl.1.0.0.UPF
Ni  58.6934 Ni.pbe-n-rrkjus_psl.1.0.0.UPF

K_POINTS automatic
12 12 1  0 0 0

CELL_PARAMETERS alat
4.88438900000000 0.00000000000000 0.00000000000000
-2.44219500000000 4.48323200000000 0.00000000000000
0.00000000000000 0.00000000000000 24.09607400000000

ATOMIC_POSITIONS alat
Cr  0.0000000000 0.0000000000 10.0000000000
Cr  2.4421947000 0.0000000000 10.0000000000
Ni  1.2210974000 2.2416162000 10.0000000000
Ni  -1.2210974000 2.2416162000 10.0000000000
Cr  2.4421947000 1.3303605000 12.0480372000
Cr  0.0000000000 1.3303605000 12.0480372000
Ni  -1.2210974000 3.5719767000 12.0480372000
Ni  1.2210974000 3.5719767000 12.0480372000
Cr  0.0000042000 2.7545499000 14.0773731000
Cr  2.4421904000 2.7544870000 14.0774686000
Ni  3.6631294000 0.5396188000 14.0765953000
Ni  1.2212600000 0.5395655000 14.0765486000

