&CONTROL
   calculation      = 'scf'
   tstress          = .true.
   tprnfor          = .true.
   outdir           = './Ni2La2'
   prefix           = 'Ni2La2_beef'
   pseudo_dir       = '../pseudo'
   tefield          = .true.
   dipfield         = .true.
/
&SYSTEM
   celldm(1)        = 1.889726
   ecutwfc          = 55.123963237125
   ecutrho          = 551.23963237125
   nosym            = .true.
   occupations      = 'smearing'
   degauss          = 0.01D0
   smearing         = 'fd'
   input_dft        = 'BEEF-vdW'
   edir             = 3
   emaxpos          = 0.95
   eopreg           = 0.05
   eamp             = 0.01
   nspin            = 2
   starting_magnetization(1) = 0.5
   starting_magnetization(2) = 0.0
   ntyp             = 2
   nat              = 12
   ibrav            = 0
/
&ELECTRONS
   electron_maxstep = 500
   conv_thr         = 1e-05
   mixing_mode      = 'plain'
   mixing_beta      = 0.1
   mixing_ndim      = 10
/
&IONS
/
&CELL
/

ATOMIC_SPECIES
Ni  58.6934 Ni.pbe-n-rrkjus_psl.1.0.0.UPF
La  138.90547 La.pbe-spfn-rrkjus_psl.1.0.0.UPF

K_POINTS automatic
12 12 1  0 0 0

CELL_PARAMETERS alat
6.19362000000000 0.00000000000000 0.00000000000000
2.05395400000000 5.84313300000000 0.00000000000000
0.00000000000000 0.00000000000000 25.05378900000000

ATOMIC_POSITIONS alat
Ni  0.0000000000 0.0000000000 10.0000000000
Ni  4.1237867000 2.9215663000 10.0000000000
La  3.0968098000 0.0000000000 10.0000000000
La  1.0269768000 2.9215663000 10.0000000000
Ni  6.1936197000 4.3879745000 12.5268947000
Ni  2.0698330000 1.4664082000 12.5268947000
La  3.0968098000 4.3879745000 12.5268947000
La  5.1666429000 1.4664082000 12.5268947000
Ni  4.1359051000 2.9296413000 14.7578893000
Ni  0.0118680000 0.0089093000 14.7572773000
La  1.0369612000 2.9286792000 15.0742026000
La  3.1066656000 0.0069225000 15.0747798000

