&CONTROL
   calculation      = 'scf'
   tstress          = .true.
   tprnfor          = .true.
   outdir           = './Ni2Mo2'
   prefix           = 'Ni2Mo2_beef'
   pseudo_dir       = '../pseudo'
   tefield          = .true.
   dipfield         = .true.
/
&SYSTEM
   celldm(1)        = 1.889726
   ecutwfc          = 55.123963237125
   ecutrho          = 551.23963237125
   nosym            = .true.
   occupations      = 'smearing'
   degauss          = 0.01D0
   smearing         = 'fd'
   input_dft        = 'BEEF-vdW'
   edir             = 3
   emaxpos          = 0.95
   eopreg           = 0.05
   eamp             = 0.01
   nspin            = 2
   starting_magnetization(1) = 0.5
   starting_magnetization(2) = 0.0
   ntyp             = 2
   nat              = 12
   ibrav            = 0
/
&ELECTRONS
   electron_maxstep = 500
   conv_thr         = 1e-05
   mixing_mode      = 'plain'
   mixing_beta      = 0.1
   mixing_ndim      = 10
/
&IONS
/
&CELL
/

ATOMIC_SPECIES
Ni  58.6934 Ni.pbe-n-rrkjus_psl.1.0.0.UPF
Mo  95.95 Mo.pbe-spn-rrkjus_psl.1.0.0.UPF

K_POINTS automatic
12 12 1  0 0 0

CELL_PARAMETERS alat
5.27472500000000 0.00000000000000 0.00000000000000
-2.63736200000000 4.64795500000000 0.00000000000000
0.00000000000000 0.00000000000000 24.34334400000000

ATOMIC_POSITIONS alat
Ni  0.0000000000 0.0000000000 10.0000000000
Ni  2.6373624000 0.0000000000 10.0000000000
Mo  1.3186812000 2.3239777000 10.0000000000
Mo  -1.3186812000 2.3239777000 10.0000000000
Ni  2.6373624000 1.4965033000 12.1716718000
Ni  -0.0000000000 1.4965033000 12.1716718000
Mo  -1.3186812000 3.8204810000 12.1716718000
Mo  1.3186812000 3.8204810000 12.1716718000
Ni  -0.0000003000 3.0631858000 14.2847815000
Ni  2.6373624000 3.0630082000 14.2847075000
Mo  3.9560576000 0.7473354000 14.2665926000
Mo  1.3186671000 0.7473355000 14.2665927000

