&INPUTPP
prefix = 'Cd2Au2_beef',
outdir = './Cd2Au2',
filplot = 'Cd2Au2-wf.dat',
plot_num = 11
/
