&DOS
prefix = 'Cd2Au2_beef',
outdir = './Cd2Au2',
degauss = 0.001,
DeltaE = 0.001,
fildos = 'Cd2Au2.dos.out',
/
