&PROJWFC
prefix = 'Cd2Au2_beef',
outdir = './Cd2Au2',
degauss = 0.001,
DeltaE = 0.001,
filpdos = 'Cd2Au2.pdos.out',
filproj = 'Cd2Au2.proj.out',
/
