&DOS
prefix = 'Cr2Au2_beef',
outdir = './Cr2Au2',
degauss = 0.001,
DeltaE = 0.001,
fildos = 'Cr2Au2.dos.out',
/
