&INPUTPP
prefix = 'Cr2Mo2_beef',
outdir = './Cr2Mo2',
filplot = 'Cr2Mo2-wf.dat',
plot_num = 11
/
