&DOS
prefix = 'Cr2Rh2_beef',
outdir = './Cr2Rh2',
degauss = 0.001,
DeltaE = 0.001,
fildos = 'Cr2Rh2.dos.out',
/
