&INPUTPP
prefix = 'Cr2Zr2_beef',
outdir = './Cr2Zr2',
filplot = 'Cr2Zr2-wf.dat',
plot_num = 11
/
