&INPUTPP
prefix = 'Mo2Au2_beef',
outdir = './Mo2Au2',
filplot = 'Mo2Au2-wf.dat',
plot_num = 11
/
