&DOS
prefix = 'Mo2Cd2_beef',
outdir = './Mo2Cd2',
degauss = 0.001,
DeltaE = 0.001,
fildos = 'Mo2Cd2.dos.out',
/
