&INPUTPP
prefix = 'Mo2Cd2_beef',
outdir = './Mo2Cd2',
filplot = 'Mo2Cd2-wf.dat',
plot_num = 11
/
