&PROJWFC
prefix = 'Mo2Cd2_beef',
outdir = './Mo2Cd2',
degauss = 0.001,
DeltaE = 0.001,
filpdos = 'Mo2Cd2.pdos.out',
filproj = 'Mo2Cd2.proj.out',
/
