&INPUTPP
prefix = 'Mo2Rh2_beef',
outdir = './Mo2Rh2',
filplot = 'Mo2Rh2-wf.dat',
plot_num = 11
/
