&PROJWFC
prefix = 'Rh2Au2_beef',
outdir = './Rh2Au2',
degauss = 0.001,
DeltaE = 0.001,
filpdos = 'Rh2Au2.pdos.out',
filproj = 'Rh2Au2.proj.out',
/
