&DOS
prefix = 'Rh2Cd2_beef',
outdir = './Rh2Cd2',
degauss = 0.001,
DeltaE = 0.001,
fildos = 'Rh2Cd2.dos.out',
/
