&PROJWFC
prefix = 'Sc2Au2_beef',
outdir = './Sc2Au2',
degauss = 0.001,
DeltaE = 0.001,
filpdos = 'Sc2Au2.pdos.out',
filproj = 'Sc2Au2.proj.out',
/
