&INPUTPP
prefix = 'Sc2Au2_beef',
outdir = './Sc2Au2',
filplot = 'Sc2Au2-wf.dat',
plot_num = 11
/
