&DOS
prefix = 'Sc2Au2_beef',
outdir = './Sc2Au2',
degauss = 0.001,
DeltaE = 0.001,
fildos = 'Sc2Au2.dos.out',
/
