&DOS
prefix = 'Sc2Cr2_beef',
outdir = './Sc2Cr2',
degauss = 0.001,
DeltaE = 0.001,
fildos = 'Sc2Cr2.dos.out',
/
