&PROJWFC
prefix = 'Sc2Cd2_beef',
outdir = './Sc2Cd2',
degauss = 0.001,
DeltaE = 0.001,
filpdos = 'Sc2Cd2.pdos.out',
filproj = 'Sc2Cd2.proj.out',
/
