&DOS
prefix = 'Sc2Cd2_beef',
outdir = './Sc2Cd2',
degauss = 0.001,
DeltaE = 0.001,
fildos = 'Sc2Cd2.dos.out',
/
