&PROJWFC
prefix = 'Sc2Cr2_beef',
outdir = './Sc2Cr2',
degauss = 0.001,
DeltaE = 0.001,
filpdos = 'Sc2Cr2.pdos.out',
filproj = 'Sc2Cr2.proj.out',
/
