&INPUTPP
prefix = 'Sc2Cd2_beef',
outdir = './Sc2Cd2',
filplot = 'Sc2Cd2-wf.dat',
plot_num = 11
/
