&INPUTPP
prefix = 'Sc2Mo2_beef',
outdir = './Sc2Mo2',
filplot = 'Sc2Mo2-wf.dat',
plot_num = 11
/
