&PROJWFC
prefix = 'Sc2Mo2_beef',
outdir = './Sc2Mo2',
degauss = 0.001,
DeltaE = 0.001,
filpdos = 'Sc2Mo2.pdos.out',
filproj = 'Sc2Mo2.proj.out',
/
