&INPUTPP
prefix = 'Sc2Rh2_beef',
outdir = './Sc2Rh2',
filplot = 'Sc2Rh2-wf.dat',
plot_num = 11
/
