&PROJWFC
prefix = 'Sc2Rh2_beef',
outdir = './Sc2Rh2',
degauss = 0.001,
DeltaE = 0.001,
filpdos = 'Sc2Rh2.pdos.out',
filproj = 'Sc2Rh2.proj.out',
/
