&DOS
prefix = 'Sc2Rh2_beef',
outdir = './Sc2Rh2',
degauss = 0.001,
DeltaE = 0.001,
fildos = 'Sc2Rh2.dos.out',
/
