&DOS
prefix = 'Sc2Zr2_beef',
outdir = './Sc2Zr2',
degauss = 0.001,
DeltaE = 0.001,
fildos = 'Sc2Zr2.dos.out',
/
