&PROJWFC
prefix = 'Sc2Zr2_beef',
outdir = './Sc2Zr2',
degauss = 0.001,
DeltaE = 0.001,
filpdos = 'Sc2Zr2.pdos.out',
filproj = 'Sc2Zr2.proj.out',
/
