&INPUTPP
prefix = 'Zr2Au2_beef',
outdir = './Zr2Au2',
filplot = 'Zr2Au2-wf.dat',
plot_num = 11
/
