&PROJWFC
prefix = 'Zr2Au2_beef',
outdir = './Zr2Au2',
degauss = 0.001,
DeltaE = 0.001,
filpdos = 'Zr2Au2.pdos.out',
filproj = 'Zr2Au2.proj.out',
/
