&DOS
prefix = 'Zr2Cd2_beef',
outdir = './Zr2Cd2',
degauss = 0.001,
DeltaE = 0.001,
fildos = 'Zr2Cd2.dos.out',
/
