&DOS
prefix = 'Zr2Mo2_beef',
outdir = './Zr2Mo2',
degauss = 0.001,
DeltaE = 0.001,
fildos = 'Zr2Mo2.dos.out',
/
