&PROJWFC
prefix = 'Zr2Mo2_beef',
outdir = './Zr2Mo2',
degauss = 0.001,
DeltaE = 0.001,
filpdos = 'Zr2Mo2.pdos.out',
filproj = 'Zr2Mo2.proj.out',
/
