&INPUTPP
prefix = 'Zr2Mo2_beef',
outdir = './Zr2Mo2',
filplot = 'Zr2Mo2-wf.dat',
plot_num = 11
/
