&DOS
prefix = 'Zr2Rh2_beef',
outdir = './Zr2Rh2',
degauss = 0.001,
DeltaE = 0.001,
fildos = 'Zr2Rh2.dos.out',
/
