&PROJWFC
prefix = 'Zr2Rh2_beef',
outdir = './Zr2Rh2',
degauss = 0.001,
DeltaE = 0.001,
filpdos = 'Zr2Rh2.pdos.out',
filproj = 'Zr2Rh2.proj.out',
/
