&DOS
prefix = 'Ag2Pt2_beef',
outdir = './Ag2Pt2',
degauss = 0.001,
DeltaE = 0.001,
fildos = 'Ag2Pt2.dos.out',
/
