&INPUTPP
prefix = 'Ag2Pt2_beef',
outdir = './Ag2Pt2',
filplot = 'Ag2Pt2-wf.dat',
plot_num = 11
/
