&PROJWFC
prefix = 'Ag2Pt2_beef',
outdir = './Ag2Pt2',
degauss = 0.001,
DeltaE = 0.001,
filpdos = 'Ag2Pt2.pdos.out',
filproj = 'Ag2Pt2.proj.out',
/
