&DOS
prefix = 'Ag2Re2_beef',
outdir = './Ag2Re2',
degauss = 0.001,
DeltaE = 0.001,
fildos = 'Ag2Re2.dos.out',
/
