&INPUTPP
prefix = 'Ag2Re2_beef',
outdir = './Ag2Re2',
filplot = 'Ag2Re2-wf.dat',
plot_num = 11
/
