&PROJWFC
prefix = 'Ag2Re2_beef',
outdir = './Ag2Re2',
degauss = 0.001,
DeltaE = 0.001,
filpdos = 'Ag2Re2.pdos.out',
filproj = 'Ag2Re2.proj.out',
/
