&DOS
prefix = 'Cd2Pt2_beef',
outdir = './Cd2Pt2',
degauss = 0.001,
DeltaE = 0.001,
fildos = 'Cd2Pt2.dos.out',
/
