&INPUTPP
prefix = 'Cd2Pt2_beef',
outdir = './Cd2Pt2',
filplot = 'Cd2Pt2-wf.dat',
plot_num = 11
/
