&PROJWFC
prefix = 'Cd2Pt2_beef',
outdir = './Cd2Pt2',
degauss = 0.001,
DeltaE = 0.001,
filpdos = 'Cd2Pt2.pdos.out',
filproj = 'Cd2Pt2.proj.out',
/
