&INPUTPP
prefix = 'Cd2Re2_beef',
outdir = './Cd2Re2',
filplot = 'Cd2Re2-wf.dat',
plot_num = 11
/
