&PROJWFC
prefix = 'Cd2Re2_beef',
outdir = './Cd2Re2',
degauss = 0.001,
DeltaE = 0.001,
filpdos = 'Cd2Re2.pdos.out',
filproj = 'Cd2Re2.proj.out',
/
