&DOS
prefix = 'Cr2Pt2_beef',
outdir = './Cr2Pt2',
degauss = 0.001,
DeltaE = 0.001,
fildos = 'Cr2Pt2.dos.out',
/
