&PROJWFC
prefix = 'Cr2Pt2_beef',
outdir = './Cr2Pt2',
degauss = 0.001,
DeltaE = 0.001,
filpdos = 'Cr2Pt2.pdos.out',
filproj = 'Cr2Pt2.proj.out',
/
