&INPUTPP
prefix = 'Cr2Pt2_beef',
outdir = './Cr2Pt2',
filplot = 'Cr2Pt2-wf.dat',
plot_num = 11
/
