&PROJWFC
prefix = 'Cr2Re2_beef',
outdir = './Cr2Re2',
degauss = 0.001,
DeltaE = 0.001,
filpdos = 'Cr2Re2.pdos.out',
filproj = 'Cr2Re2.proj.out',
/
