&DOS
prefix = 'Cr2Re2_beef',
outdir = './Cr2Re2',
degauss = 0.001,
DeltaE = 0.001,
fildos = 'Cr2Re2.dos.out',
/
