&INPUTPP
prefix = 'Cr2Re2_beef',
outdir = './Cr2Re2',
filplot = 'Cr2Re2-wf.dat',
plot_num = 11
/
