&DOS
prefix = 'Cu2Pt2_beef',
outdir = './Cu2Pt2',
degauss = 0.001,
DeltaE = 0.001,
fildos = 'Cu2Pt2.dos.out',
/
