&INPUTPP
prefix = 'Cu2Pt2_beef',
outdir = './Cu2Pt2',
filplot = 'Cu2Pt2-wf.dat',
plot_num = 11
/
