&PROJWFC
prefix = 'Cu2Pt2_beef',
outdir = './Cu2Pt2',
degauss = 0.001,
DeltaE = 0.001,
filpdos = 'Cu2Pt2.pdos.out',
filproj = 'Cu2Pt2.proj.out',
/
