&PROJWFC
prefix = 'Cu2Re2_beef',
outdir = './Cu2Re2',
degauss = 0.001,
DeltaE = 0.001,
filpdos = 'Cu2Re2.pdos.out',
filproj = 'Cu2Re2.proj.out',
/
