&INPUTPP
prefix = 'Cu2Re2_beef',
outdir = './Cu2Re2',
filplot = 'Cu2Re2-wf.dat',
plot_num = 11
/
