&DOS
prefix = 'Cu2Re2_beef',
outdir = './Cu2Re2',
degauss = 0.001,
DeltaE = 0.001,
fildos = 'Cu2Re2.dos.out',
/
