&PROJWFC
prefix = 'Mo2Pt2_beef',
outdir = './Mo2Pt2',
degauss = 0.001,
DeltaE = 0.001,
filpdos = 'Mo2Pt2.pdos.out',
filproj = 'Mo2Pt2.proj.out',
/
