&DOS
prefix = 'Mo2Pt2_beef',
outdir = './Mo2Pt2',
degauss = 0.001,
DeltaE = 0.001,
fildos = 'Mo2Pt2.dos.out',
/
