&INPUTPP
prefix = 'Mo2Pt2_beef',
outdir = './Mo2Pt2',
filplot = 'Mo2Pt2-wf.dat',
plot_num = 11
/
