&DOS
prefix = 'Mo2Re2_beef',
outdir = './Mo2Re2',
degauss = 0.001,
DeltaE = 0.001,
fildos = 'Mo2Re2.dos.out',
/
