&PROJWFC
prefix = 'Mo2Re2_beef',
outdir = './Mo2Re2',
degauss = 0.001,
DeltaE = 0.001,
filpdos = 'Mo2Re2.pdos.out',
filproj = 'Mo2Re2.proj.out',
/
