&INPUTPP
prefix = 'Mo2Re2_beef',
outdir = './Mo2Re2',
filplot = 'Mo2Re2-wf.dat',
plot_num = 11
/
