&PROJWFC
prefix = 'Nb2Pt2_beef',
outdir = './Nb2Pt2',
degauss = 0.001,
DeltaE = 0.001,
filpdos = 'Nb2Pt2.pdos.out',
filproj = 'Nb2Pt2.proj.out',
/
