&DOS
prefix = 'Nb2Pt2_beef',
outdir = './Nb2Pt2',
degauss = 0.001,
DeltaE = 0.001,
fildos = 'Nb2Pt2.dos.out',
/
