&INPUTPP
prefix = 'Nb2Pt2_beef',
outdir = './Nb2Pt2',
filplot = 'Nb2Pt2-wf.dat',
plot_num = 11
/
