&PROJWFC
prefix = 'Nb2Re2_beef',
outdir = './Nb2Re2',
degauss = 0.001,
DeltaE = 0.001,
filpdos = 'Nb2Re2.pdos.out',
filproj = 'Nb2Re2.proj.out',
/
