&INPUTPP
prefix = 'Nb2Re2_beef',
outdir = './Nb2Re2',
filplot = 'Nb2Re2-wf.dat',
plot_num = 11
/
