&DOS
prefix = 'Nb2Re2_beef',
outdir = './Nb2Re2',
degauss = 0.001,
DeltaE = 0.001,
fildos = 'Nb2Re2.dos.out',
/
