&PROJWFC
prefix = 'Os2Pt2_beef',
outdir = './Os2Pt2',
degauss = 0.001,
DeltaE = 0.001,
filpdos = 'Os2Pt2.pdos.out',
filproj = 'Os2Pt2.proj.out',
/
