&INPUTPP
prefix = 'Os2Pt2_beef',
outdir = './Os2Pt2',
filplot = 'Os2Pt2-wf.dat',
plot_num = 11
/
