&DOS
prefix = 'Os2Pt2_beef',
outdir = './Os2Pt2',
degauss = 0.001,
DeltaE = 0.001,
fildos = 'Os2Pt2.dos.out',
/
