&PROJWFC
prefix = 'Pt2Au2_beef',
outdir = './Pt2Au2',
degauss = 0.001,
DeltaE = 0.001,
filpdos = 'Pt2Au2.pdos.out',
filproj = 'Pt2Au2.proj.out',
/
