&INPUTPP
prefix = 'Pt2Au2_beef',
outdir = './Pt2Au2',
filplot = 'Pt2Au2-wf.dat',
plot_num = 11
/
