&DOS
prefix = 'Pt2Au2_beef',
outdir = './Pt2Au2',
degauss = 0.001,
DeltaE = 0.001,
fildos = 'Pt2Au2.dos.out',
/
