&DOS
prefix = 'Pt2Hg2_beef',
outdir = './Pt2Hg2',
degauss = 0.001,
DeltaE = 0.001,
fildos = 'Pt2Hg2.dos.out',
/
