&INPUTPP
prefix = 'Pt2Hg2_beef',
outdir = './Pt2Hg2',
filplot = 'Pt2Hg2-wf.dat',
plot_num = 11
/
