&PROJWFC
prefix = 'Pt2Hg2_beef',
outdir = './Pt2Hg2',
degauss = 0.001,
DeltaE = 0.001,
filpdos = 'Pt2Hg2.pdos.out',
filproj = 'Pt2Hg2.proj.out',
/
