&PROJWFC
prefix = 'Re2Au2_beef',
outdir = './Re2Au2',
degauss = 0.001,
DeltaE = 0.001,
filpdos = 'Re2Au2.pdos.out',
filproj = 'Re2Au2.proj.out',
/
