&INPUTPP
prefix = 'Re2Au2_beef',
outdir = './Re2Au2',
filplot = 'Re2Au2-wf.dat',
plot_num = 11
/
