&DOS
prefix = 'Re2Au2_beef',
outdir = './Re2Au2',
degauss = 0.001,
DeltaE = 0.001,
fildos = 'Re2Au2.dos.out',
/
