&PROJWFC
prefix = 'Re2Hg2_beef',
outdir = './Re2Hg2',
degauss = 0.001,
DeltaE = 0.001,
filpdos = 'Re2Hg2.pdos.out',
filproj = 'Re2Hg2.proj.out',
/
