&INPUTPP
prefix = 'Re2Hg2_beef',
outdir = './Re2Hg2',
filplot = 'Re2Hg2-wf.dat',
plot_num = 11
/
