&DOS
prefix = 'Re2Hg2_beef',
outdir = './Re2Hg2',
degauss = 0.001,
DeltaE = 0.001,
fildos = 'Re2Hg2.dos.out',
/
