&PROJWFC
prefix = 'Re2Os2_beef',
outdir = './Re2Os2',
degauss = 0.001,
DeltaE = 0.001,
filpdos = 'Re2Os2.pdos.out',
filproj = 'Re2Os2.proj.out',
/
