&INPUTPP
prefix = 'Re2Os2_beef',
outdir = './Re2Os2',
filplot = 'Re2Os2-wf.dat',
plot_num = 11
/
