&DOS
prefix = 'Re2Os2_beef',
outdir = './Re2Os2',
degauss = 0.001,
DeltaE = 0.001,
fildos = 'Re2Os2.dos.out',
/
