&INPUTPP
prefix = 'Re2Pt2_beef',
outdir = './Re2Pt2',
filplot = 'Re2Pt2-wf.dat',
plot_num = 11
/
