&PROJWFC
prefix = 'Re2Pt2_beef',
outdir = './Re2Pt2',
degauss = 0.001,
DeltaE = 0.001,
filpdos = 'Re2Pt2.pdos.out',
filproj = 'Re2Pt2.proj.out',
/
