&DOS
prefix = 'Re2Pt2_beef',
outdir = './Re2Pt2',
degauss = 0.001,
DeltaE = 0.001,
fildos = 'Re2Pt2.dos.out',
/
