&PROJWFC
prefix = 'Rh2Pt2_beef',
outdir = './Rh2Pt2',
degauss = 0.001,
DeltaE = 0.001,
filpdos = 'Rh2Pt2.pdos.out',
filproj = 'Rh2Pt2.proj.out',
/
