&DOS
prefix = 'Rh2Pt2_beef',
outdir = './Rh2Pt2',
degauss = 0.001,
DeltaE = 0.001,
fildos = 'Rh2Pt2.dos.out',
/
