&INPUTPP
prefix = 'Rh2Pt2_beef',
outdir = './Rh2Pt2',
filplot = 'Rh2Pt2-wf.dat',
plot_num = 11
/
