&INPUTPP
prefix = 'Rh2Re2_beef',
outdir = './Rh2Re2',
filplot = 'Rh2Re2-wf.dat',
plot_num = 11
/
