&DOS
prefix = 'Rh2Re2_beef',
outdir = './Rh2Re2',
degauss = 0.001,
DeltaE = 0.001,
fildos = 'Rh2Re2.dos.out',
/
