&PROJWFC
prefix = 'Rh2Re2_beef',
outdir = './Rh2Re2',
degauss = 0.001,
DeltaE = 0.001,
filpdos = 'Rh2Re2.pdos.out',
filproj = 'Rh2Re2.proj.out',
/
