&PROJWFC
prefix = 'Ru2Pt2_beef',
outdir = './Ru2Pt2',
degauss = 0.001,
DeltaE = 0.001,
filpdos = 'Ru2Pt2.pdos.out',
filproj = 'Ru2Pt2.proj.out',
/
