&DOS
prefix = 'Ru2Pt2_beef',
outdir = './Ru2Pt2',
degauss = 0.001,
DeltaE = 0.001,
fildos = 'Ru2Pt2.dos.out',
/
