&INPUTPP
prefix = 'Ru2Pt2_beef',
outdir = './Ru2Pt2',
filplot = 'Ru2Pt2-wf.dat',
plot_num = 11
/
