&DOS
prefix = 'Ru2Re2_beef',
outdir = './Ru2Re2',
degauss = 0.001,
DeltaE = 0.001,
fildos = 'Ru2Re2.dos.out',
/
