&INPUTPP
prefix = 'Ru2Re2_beef',
outdir = './Ru2Re2',
filplot = 'Ru2Re2-wf.dat',
plot_num = 11
/
