&PROJWFC
prefix = 'Ru2Re2_beef',
outdir = './Ru2Re2',
degauss = 0.001,
DeltaE = 0.001,
filpdos = 'Ru2Re2.pdos.out',
filproj = 'Ru2Re2.proj.out',
/
