&PROJWFC
prefix = 'Sc2Pt2_beef',
outdir = './Sc2Pt2',
degauss = 0.001,
DeltaE = 0.001,
filpdos = 'Sc2Pt2.pdos.out',
filproj = 'Sc2Pt2.proj.out',
/
