&INPUTPP
prefix = 'Sc2Pt2_beef',
outdir = './Sc2Pt2',
filplot = 'Sc2Pt2-wf.dat',
plot_num = 11
/
