&DOS
prefix = 'Sc2Pt2_beef',
outdir = './Sc2Pt2',
degauss = 0.001,
DeltaE = 0.001,
fildos = 'Sc2Pt2.dos.out',
/
