&INPUTPP
prefix = 'Sc2Re2_beef',
outdir = './Sc2Re2',
filplot = 'Sc2Re2-wf.dat',
plot_num = 11
/
