&PROJWFC
prefix = 'Sc2Re2_beef',
outdir = './Sc2Re2',
degauss = 0.001,
DeltaE = 0.001,
filpdos = 'Sc2Re2.pdos.out',
filproj = 'Sc2Re2.proj.out',
/
