&DOS
prefix = 'Sc2Re2_beef',
outdir = './Sc2Re2',
degauss = 0.001,
DeltaE = 0.001,
fildos = 'Sc2Re2.dos.out',
/
