&DOS
prefix = 'Sc2Ti2_beef',
outdir = './Sc2Ti2',
degauss = 0.001,
DeltaE = 0.001,
fildos = 'Sc2Ti2.dos.out',
/
