&PROJWFC
prefix = 'Sc2Ti2_beef',
outdir = './Sc2Ti2',
degauss = 0.001,
DeltaE = 0.001,
filpdos = 'Sc2Ti2.pdos.out',
filproj = 'Sc2Ti2.proj.out',
/
