&INPUTPP
prefix = 'Sc2Ti2_beef',
outdir = './Sc2Ti2',
filplot = 'Sc2Ti2-wf.dat',
plot_num = 11
/
