&PROJWFC
prefix = 'Ti2Ag2_beef',
outdir = './Ti2Ag2',
degauss = 0.001,
DeltaE = 0.001,
filpdos = 'Ti2Ag2.pdos.out',
filproj = 'Ti2Ag2.proj.out',
/
