&DOS
prefix = 'Ti2Ag2_beef',
outdir = './Ti2Ag2',
degauss = 0.001,
DeltaE = 0.001,
fildos = 'Ti2Ag2.dos.out',
/
