&INPUTPP
prefix = 'Ti2Au2_beef',
outdir = './Ti2Au2',
filplot = 'Ti2Au2-wf.dat',
plot_num = 11
/
