&DOS
prefix = 'Ti2Au2_beef',
outdir = './Ti2Au2',
degauss = 0.001,
DeltaE = 0.001,
fildos = 'Ti2Au2.dos.out',
/
