&INPUTPP
prefix = 'Ti2Ag2_beef',
outdir = './Ti2Ag2',
filplot = 'Ti2Ag2-wf.dat',
plot_num = 11
/
