&PROJWFC
prefix = 'Ti2Au2_beef',
outdir = './Ti2Au2',
degauss = 0.001,
DeltaE = 0.001,
filpdos = 'Ti2Au2.pdos.out',
filproj = 'Ti2Au2.proj.out',
/
