&INPUTPP
prefix = 'Ti2Cd2_beef',
outdir = './Ti2Cd2',
filplot = 'Ti2Cd2-wf.dat',
plot_num = 11
/
