&PROJWFC
prefix = 'Ti2Cu2_beef',
outdir = './Ti2Cu2',
degauss = 0.001,
DeltaE = 0.001,
filpdos = 'Ti2Cu2.pdos.out',
filproj = 'Ti2Cu2.proj.out',
/
