&INPUTPP
prefix = 'Ti2Cr2_beef',
outdir = './Ti2Cr2',
filplot = 'Ti2Cr2-wf.dat',
plot_num = 11
/
