&INPUTPP
prefix = 'Ti2Cu2_beef',
outdir = './Ti2Cu2',
filplot = 'Ti2Cu2-wf.dat',
plot_num = 11
/
