&DOS
prefix = 'Ti2Cu2_beef',
outdir = './Ti2Cu2',
degauss = 0.001,
DeltaE = 0.001,
fildos = 'Ti2Cu2.dos.out',
/
