&DOS
prefix = 'Ti2Cd2_beef',
outdir = './Ti2Cd2',
degauss = 0.001,
DeltaE = 0.001,
fildos = 'Ti2Cd2.dos.out',
/
