&DOS
prefix = 'Ti2Cr2_beef',
outdir = './Ti2Cr2',
degauss = 0.001,
DeltaE = 0.001,
fildos = 'Ti2Cr2.dos.out',
/
