&PROJWFC
prefix = 'Ti2Cr2_beef',
outdir = './Ti2Cr2',
degauss = 0.001,
DeltaE = 0.001,
filpdos = 'Ti2Cr2.pdos.out',
filproj = 'Ti2Cr2.proj.out',
/
