&PROJWFC
prefix = 'Ti2Cd2_beef',
outdir = './Ti2Cd2',
degauss = 0.001,
DeltaE = 0.001,
filpdos = 'Ti2Cd2.pdos.out',
filproj = 'Ti2Cd2.proj.out',
/
