&PROJWFC
prefix = 'Ti2Hg2_beef',
outdir = './Ti2Hg2',
degauss = 0.001,
DeltaE = 0.001,
filpdos = 'Ti2Hg2.pdos.out',
filproj = 'Ti2Hg2.proj.out',
/
