&DOS
prefix = 'Ti2Hg2_beef',
outdir = './Ti2Hg2',
degauss = 0.001,
DeltaE = 0.001,
fildos = 'Ti2Hg2.dos.out',
/
