&INPUTPP
prefix = 'Ti2Hg2_beef',
outdir = './Ti2Hg2',
filplot = 'Ti2Hg2-wf.dat',
plot_num = 11
/
