&DOS
prefix = 'Ti2Mo2_beef',
outdir = './Ti2Mo2',
degauss = 0.001,
DeltaE = 0.001,
fildos = 'Ti2Mo2.dos.out',
/
