&INPUTPP
prefix = 'Ti2Mo2_beef',
outdir = './Ti2Mo2',
filplot = 'Ti2Mo2-wf.dat',
plot_num = 11
/
