&PROJWFC
prefix = 'Ti2Mo2_beef',
outdir = './Ti2Mo2',
degauss = 0.001,
DeltaE = 0.001,
filpdos = 'Ti2Mo2.pdos.out',
filproj = 'Ti2Mo2.proj.out',
/
