&PROJWFC
prefix = 'Ti2Nb2_beef',
outdir = './Ti2Nb2',
degauss = 0.001,
DeltaE = 0.001,
filpdos = 'Ti2Nb2.pdos.out',
filproj = 'Ti2Nb2.proj.out',
/
