&INPUTPP
prefix = 'Ti2Nb2_beef',
outdir = './Ti2Nb2',
filplot = 'Ti2Nb2-wf.dat',
plot_num = 11
/
