&DOS
prefix = 'Ti2Nb2_beef',
outdir = './Ti2Nb2',
degauss = 0.001,
DeltaE = 0.001,
fildos = 'Ti2Nb2.dos.out',
/
