&PROJWFC
prefix = 'Ti2Os2_beef',
outdir = './Ti2Os2',
degauss = 0.001,
DeltaE = 0.001,
filpdos = 'Ti2Os2.pdos.out',
filproj = 'Ti2Os2.proj.out',
/
