&DOS
prefix = 'Ti2Os2_beef',
outdir = './Ti2Os2',
degauss = 0.001,
DeltaE = 0.001,
fildos = 'Ti2Os2.dos.out',
/
