&INPUTPP
prefix = 'Ti2Os2_beef',
outdir = './Ti2Os2',
filplot = 'Ti2Os2-wf.dat',
plot_num = 11
/
