&DOS
prefix = 'Ti2Pt2_beef',
outdir = './Ti2Pt2',
degauss = 0.001,
DeltaE = 0.001,
fildos = 'Ti2Pt2.dos.out',
/
