&INPUTPP
prefix = 'Ti2Pt2_beef',
outdir = './Ti2Pt2',
filplot = 'Ti2Pt2-wf.dat',
plot_num = 11
/
