&PROJWFC
prefix = 'Ti2Pt2_beef',
outdir = './Ti2Pt2',
degauss = 0.001,
DeltaE = 0.001,
filpdos = 'Ti2Pt2.pdos.out',
filproj = 'Ti2Pt2.proj.out',
/
