&INPUTPP
prefix = 'Ti2Rh2_beef',
outdir = './Ti2Rh2',
filplot = 'Ti2Rh2-wf.dat',
plot_num = 11
/
