&DOS
prefix = 'Ti2Rh2_beef',
outdir = './Ti2Rh2',
degauss = 0.001,
DeltaE = 0.001,
fildos = 'Ti2Rh2.dos.out',
/
