&INPUTPP
prefix = 'Ti2Re2_beef',
outdir = './Ti2Re2',
filplot = 'Ti2Re2-wf.dat',
plot_num = 11
/
