&PROJWFC
prefix = 'Ti2Ru2_beef',
outdir = './Ti2Ru2',
degauss = 0.001,
DeltaE = 0.001,
filpdos = 'Ti2Ru2.pdos.out',
filproj = 'Ti2Ru2.proj.out',
/
