&PROJWFC
prefix = 'Ti2Rh2_beef',
outdir = './Ti2Rh2',
degauss = 0.001,
DeltaE = 0.001,
filpdos = 'Ti2Rh2.pdos.out',
filproj = 'Ti2Rh2.proj.out',
/
