&DOS
prefix = 'Ti2Ru2_beef',
outdir = './Ti2Ru2',
degauss = 0.001,
DeltaE = 0.001,
fildos = 'Ti2Ru2.dos.out',
/
