&PROJWFC
prefix = 'Ti2Re2_beef',
outdir = './Ti2Re2',
degauss = 0.001,
DeltaE = 0.001,
filpdos = 'Ti2Re2.pdos.out',
filproj = 'Ti2Re2.proj.out',
/
