&INPUTPP
prefix = 'Ti2Ru2_beef',
outdir = './Ti2Ru2',
filplot = 'Ti2Ru2-wf.dat',
plot_num = 11
/
