&DOS
prefix = 'Ti2Re2_beef',
outdir = './Ti2Re2',
degauss = 0.001,
DeltaE = 0.001,
fildos = 'Ti2Re2.dos.out',
/
