&DOS
prefix = 'Ti2Y2_beef',
outdir = './Ti2Y2',
degauss = 0.001,
DeltaE = 0.001,
fildos = 'Ti2Y2.dos.out',
/
