&INPUTPP
prefix = 'Ti2Y2_beef',
outdir = './Ti2Y2',
filplot = 'Ti2Y2-wf.dat',
plot_num = 11
/
