&PROJWFC
prefix = 'Ti2Y2_beef',
outdir = './Ti2Y2',
degauss = 0.001,
DeltaE = 0.001,
filpdos = 'Ti2Y2.pdos.out',
filproj = 'Ti2Y2.proj.out',
/
