&PROJWFC
prefix = 'Ti2Zr2_beef',
outdir = './Ti2Zr2',
degauss = 0.001,
DeltaE = 0.001,
filpdos = 'Ti2Zr2.pdos.out',
filproj = 'Ti2Zr2.proj.out',
/
