&DOS
prefix = 'Ti2Zr2_beef',
outdir = './Ti2Zr2',
degauss = 0.001,
DeltaE = 0.001,
fildos = 'Ti2Zr2.dos.out',
/
