&INPUTPP
prefix = 'Ti2Zr2_beef',
outdir = './Ti2Zr2',
filplot = 'Ti2Zr2-wf.dat',
plot_num = 11
/
