&PROJWFC
prefix = 'Y2Pt2_beef',
outdir = './Y2Pt2',
degauss = 0.001,
DeltaE = 0.001,
filpdos = 'Y2Pt2.pdos.out',
filproj = 'Y2Pt2.proj.out',
/
