&INPUTPP
prefix = 'Y2Pt2_beef',
outdir = './Y2Pt2',
filplot = 'Y2Pt2-wf.dat',
plot_num = 11
/
