&DOS
prefix = 'Y2Pt2_beef',
outdir = './Y2Pt2',
degauss = 0.001,
DeltaE = 0.001,
fildos = 'Y2Pt2.dos.out',
/
