&DOS
prefix = 'Y2Re2_beef',
outdir = './Y2Re2',
degauss = 0.001,
DeltaE = 0.001,
fildos = 'Y2Re2.dos.out',
/
