&PROJWFC
prefix = 'Y2Re2_beef',
outdir = './Y2Re2',
degauss = 0.001,
DeltaE = 0.001,
filpdos = 'Y2Re2.pdos.out',
filproj = 'Y2Re2.proj.out',
/
