&INPUTPP
prefix = 'Y2Re2_beef',
outdir = './Y2Re2',
filplot = 'Y2Re2-wf.dat',
plot_num = 11
/
