&PROJWFC
prefix = 'Zr2Pt2_beef',
outdir = './Zr2Pt2',
degauss = 0.001,
DeltaE = 0.001,
filpdos = 'Zr2Pt2.pdos.out',
filproj = 'Zr2Pt2.proj.out',
/
