&INPUTPP
prefix = 'Zr2Pt2_beef',
outdir = './Zr2Pt2',
filplot = 'Zr2Pt2-wf.dat',
plot_num = 11
/
