&DOS
prefix = 'Zr2Pt2_beef',
outdir = './Zr2Pt2',
degauss = 0.001,
DeltaE = 0.001,
fildos = 'Zr2Pt2.dos.out',
/
