&DOS
prefix = 'Zr2Re2_beef',
outdir = './Zr2Re2',
degauss = 0.001,
DeltaE = 0.001,
fildos = 'Zr2Re2.dos.out',
/
