&PROJWFC
prefix = 'Zr2Re2_beef',
outdir = './Zr2Re2',
degauss = 0.001,
DeltaE = 0.001,
filpdos = 'Zr2Re2.pdos.out',
filproj = 'Zr2Re2.proj.out',
/
