&INPUTPP
prefix = 'Zr2Re2_beef',
outdir = './Zr2Re2',
filplot = 'Zr2Re2-wf.dat',
plot_num = 11
/
