&DOS
prefix = 'La750_beef',
outdir = './La750',
degauss = 0.001,
DeltaE = 0.001,
fildos = 'La.dos.out',
/
