&INPUTPP
prefix = 'La750_beef',
outdir = './La750',
filplot = 'La-wf.dat',
plot_num = 11
/
