&PROJWFC
prefix = 'La750_beef',
outdir = './La750',
degauss = 0.001,
DeltaE = 0.001,
filpdos = 'La.pdos.out',
filproj = 'La.proj.out',
/
