&DOS
prefix = 'Mo750_beef',
outdir = './Mo750',
degauss = 0.001,
DeltaE = 0.001,
fildos = 'Mo.dos.out',
/
