&PROJWFC
prefix = 'Mo750_beef',
outdir = './Mo750',
degauss = 0.001,
DeltaE = 0.001,
filpdos = 'Mo.pdos.out',
filproj = 'Mo.proj.out',
/
