&INPUTPP
prefix = 'Mo750_beef',
outdir = './Mo750',
filplot = 'Mo-wf.dat',
plot_num = 11
/
