&DOS
prefix = 'Nb750_beef',
outdir = './Nb750',
degauss = 0.001,
DeltaE = 0.001,
fildos = 'Nb.dos.out',
/
