&INPUTPP
prefix = 'Nb750_beef',
outdir = './Nb750',
filplot = 'Nb-wf.dat',
plot_num = 11
/
