&PROJWFC
prefix = 'Nb750_beef',
outdir = './Nb750',
degauss = 0.001,
DeltaE = 0.001,
filpdos = 'Nb.pdos.out',
filproj = 'Nb.proj.out',
/
