&DOS
prefix = 'Os750_beef',
outdir = './Os750',
degauss = 0.001,
DeltaE = 0.001,
fildos = 'Os.dos.out',
/
