&INPUTPP
prefix = 'Os750_beef',
outdir = './Os750',
filplot = 'Os-wf.dat',
plot_num = 11
/
