&DOS
prefix = 'Pd750_beef',
outdir = './Pd750',
degauss = 0.001,
DeltaE = 0.001,
fildos = 'Pd.dos.out',
/
