&PROJWFC
prefix = 'Pd750_beef',
outdir = './Pd750',
degauss = 0.001,
DeltaE = 0.001,
filpdos = 'Pd.pdos.out',
filproj = 'Pd.proj.out',
/
