&INPUTPP
prefix = 'Pd750_beef',
outdir = './Pd750',
filplot = 'Pd-wf.dat',
plot_num = 11
/
