&DOS
prefix = 'Pt750_beef',
outdir = './Pt750',
degauss = 0.001,
DeltaE = 0.001,
fildos = 'Pt.dos.out',
/
