&PROJWFC
prefix = 'Pt750_beef',
outdir = './Pt750',
degauss = 0.001,
DeltaE = 0.001,
filpdos = 'Pt.pdos.out',
filproj = 'Pt.proj.out',
/
