&INPUTPP
prefix = 'Pt750_beef',
outdir = './Pt750',
filplot = 'Pt-wf.dat',
plot_num = 11
/
