&DOS
prefix = 'Re750_beef',
outdir = './Re750',
degauss = 0.001,
DeltaE = 0.001,
fildos = 'Re.dos.out',
/
