&INPUTPP
prefix = 'Re750_beef',
outdir = './Re750',
filplot = 'Re-wf.dat',
plot_num = 11
/
