&DOS
prefix = 'Rh750_beef',
outdir = './Rh750',
degauss = 0.001,
DeltaE = 0.001,
fildos = 'Rh.dos.out',
/
