&INPUTPP
prefix = 'Rh750_beef',
outdir = './Rh750',
filplot = 'Rh-wf.dat',
plot_num = 11
/
