&PROJWFC
prefix = 'Rh750_beef',
outdir = './Rh750',
degauss = 0.001,
DeltaE = 0.001,
filpdos = 'Rh.pdos.out',
filproj = 'Rh.proj.out',
/
