&DOS
prefix = 'Ru750_beef',
outdir = './Ru750',
degauss = 0.001,
DeltaE = 0.001,
fildos = 'Ru.dos.out',
/
