&PROJWFC
prefix = 'Ru750_beef',
outdir = './Ru750',
degauss = 0.001,
DeltaE = 0.001,
filpdos = 'Ru.pdos.out',
filproj = 'Ru.proj.out',
/
