&INPUTPP
prefix = 'Ru750_beef',
outdir = './Ru750',
filplot = 'Ru-wf.dat',
plot_num = 11
/
