&CONTROL
   calculation      = 'scf'
   tstress          = .true.
   tprnfor          = .true.
   outdir           = './Ag2Y2'
   prefix           = 'Ag2Y2_beef'
   pseudo_dir       = '../pseudo'
   tefield          = .true.
   dipfield         = .true.
/
&SYSTEM
   celldm(1)        = 1.889726
   ecutwfc          = 55.123963237125
   ecutrho          = 551.23963237125
   nosym            = .true.
   occupations      = 'smearing'
   degauss          = 0.01D0
   smearing         = 'fd'
   input_dft        = 'BEEF-vdW'
   edir             = 3
   emaxpos          = 0.95
   eopreg           = 0.05
   eamp             = 0.01
   ntyp             = 2
   nat              = 12
   ibrav            = 0
/
&ELECTRONS
   electron_maxstep = 500
   conv_thr         = 1e-05
   mixing_mode      = 'plain'
   mixing_beta      = 0.1
   mixing_ndim      = 10
/
&IONS
/
&CELL
/

ATOMIC_SPECIES
Ag 107.8682 Ag.pbe-n-rrkjus_psl.1.0.0.UPF
Y 88.90584 Y.pbe-spn-rrkjus_psl.1.0.0.UPF

K_POINTS automatic
12 12 1  0 0 0

CELL_PARAMETERS alat
6.34712800000000 0.00000000000000 0.00000000000000
2.11816500000000 5.98326100000000 0.00000000000000
0.00000000000000 0.00000000000000 25.18315800000000

ATOMIC_POSITIONS alat
Ag 0.0000000000 0.0000000000 10.0000000000 
Ag 4.2326464000 2.9916305000 10.0000000000 
Y 3.1735640000 0.0000000000 10.0000000000 
Y 1.0590824000 2.9916305000 10.0000000000 
Ag 6.3471281000 4.4861442000 12.5915791000 
Ag 2.1144817000 1.4945137000 12.5915791000 
Y 3.1735640000 4.4861442000 12.5915791000 
Y 5.2880457000 1.4945137000 12.5915791000 
Ag 4.2288774000 2.9889817000 15.0545766000 
Ag 8.4620251000 5.9809364000 15.0547382000 
Y 7.4033009000 2.9895956000 15.1697335000 
Y 5.2888386000 5.9812026000 15.1697505000 

