&CONTROL
   calculation      = 'scf'
   tstress          = .true.
   tprnfor          = .true.
   outdir           = './Cr2Ag2'
   prefix           = 'Cr2Ag2_beef'
   pseudo_dir       = '../pseudo'
   tefield          = .true.
   dipfield         = .true.
/
&SYSTEM
   celldm(1)        = 1.889726
   ecutwfc          = 55.123963237125
   ecutrho          = 551.23963237125
   nosym            = .true.
   occupations      = 'smearing'
   degauss          = 0.01D0
   smearing         = 'fd'
   input_dft        = 'BEEF-vdW'
   edir             = 3
   emaxpos          = 0.95
   eopreg           = 0.05
   eamp             = 0.01
   ntyp             = 2
   nat              = 12
   ibrav            = 0
/
&ELECTRONS
   electron_maxstep = 500
   conv_thr         = 1e-05
   mixing_mode      = 'plain'
   mixing_beta      = 0.1
   mixing_ndim      = 10
/
&IONS
/
&CELL
/

ATOMIC_SPECIES
Cr 51.9961 Cr.pbe-spn-rrkjus_psl.1.0.0.UPF
Ag 107.8682 Ag.pbe-n-rrkjus_psl.1.0.0.UPF

K_POINTS automatic
12 12 1  0 0 0

CELL_PARAMETERS alat
5.22142900000000 0.00000000000000 0.00000000000000
-2.61071500000000 5.11502600000000 0.00000000000000
0.00000000000000 0.00000000000000 24.49009800000000

ATOMIC_POSITIONS alat
Cr 0.0000000000 0.0000000000 10.0000000000 
Cr 2.6107146000 0.0000000000 10.0000000000 
Ag 1.3053573000 2.5575132000 10.0000000000 
Ag -1.3053573000 2.5575132000 10.0000000000 
Cr 2.6107146000 1.3325114000 12.2450488000 
Cr 0.0000000000 1.3325114000 12.2450488000 
Ag -1.3053573000 3.8900246000 12.2450488000 
Ag 1.3053573000 3.8900246000 12.2450488000 
Cr -0.0004089000 1.8396794000 14.0094613000 
Cr 2.6103067000 1.8396727000 14.0092681000 
Ag 1.3040572000 4.5665381000 14.9535846000 
Ag -1.3052453000 4.5665759000 14.9535942000 

