&CONTROL
   calculation      = 'scf'
   tstress          = .true.
   tprnfor          = .true.
   outdir           = './Cr2Ru2'
   prefix           = 'Cr2Ru2_beef'
   pseudo_dir       = '../pseudo'
   tefield          = .true.
   dipfield         = .true.
/
&SYSTEM
   celldm(1)        = 1.889726
   ecutwfc          = 55.123963237125
   ecutrho          = 551.23963237125
   nosym            = .true.
   occupations      = 'smearing'
   degauss          = 0.01D0
   smearing         = 'fd'
   input_dft        = 'BEEF-vdW'
   edir             = 3
   emaxpos          = 0.95
   eopreg           = 0.05
   eamp             = 0.01
   ntyp             = 2
   nat              = 12
   ibrav            = 0
/
&ELECTRONS
   electron_maxstep = 500
   conv_thr         = 1e-05
   mixing_mode      = 'plain'
   mixing_beta      = 0.1
   mixing_ndim      = 10
/
&IONS
/
&CELL
/

ATOMIC_SPECIES
Cr 51.9961 Cr.pbe-spn-rrkjus_psl.1.0.0.UPF
Ru 101.07 Ru.pbe-spn-rrkjus_psl.1.0.0.UPF

K_POINTS automatic
12 12 1  0 0 0

CELL_PARAMETERS alat
5.24123700000000 0.00000000000000 0.00000000000000
2.51172500000000 4.60019600000000 0.00000000000000
0.00000000000000 0.00000000000000 24.30567900000000

ATOMIC_POSITIONS alat
Cr 0.0000000000 0.0000000000 10.0000000000 
Cr 3.8764808000 2.3000979000 10.0000000000 
Ru 2.6206184000 0.0000000000 10.0000000000 
Ru 1.2558624000 2.3000979000 10.0000000000 
Cr 5.2412368000 3.1098717000 12.1528393000 
Cr 1.3647560000 0.8097738000 12.1528393000 
Ru 2.6206184000 3.1098717000 12.1528393000 
Ru 3.9853744000 0.8097738000 12.1528393000 
Cr 2.6460194000 1.5700076000 14.1433983000 
Cr 6.5224309000 3.8700643000 14.1433882000 
Ru 5.3069255000 1.5942974000 14.2629593000 
Ru 3.9425077000 3.8938257000 14.2629574000 

