&CONTROL
   calculation      = 'scf'
   tstress          = .true.
   tprnfor          = .true.
   outdir           = './Cu2Os2'
   prefix           = 'Cu2Os2_beef'
   pseudo_dir       = '../pseudo'
   tefield          = .true.
   dipfield         = .true.
/
&SYSTEM
   celldm(1)        = 1.889726
   ecutwfc          = 55.123963237125
   ecutrho          = 551.23963237125
   nosym            = .true.
   occupations      = 'smearing'
   degauss          = 0.01D0
   smearing         = 'fd'
   input_dft        = 'BEEF-vdW'
   edir             = 3
   emaxpos          = 0.95
   eopreg           = 0.05
   eamp             = 0.01
   ntyp             = 2
   nat              = 12
   ibrav            = 0
/
&ELECTRONS
   electron_maxstep = 500
   conv_thr         = 1e-05
   mixing_mode      = 'plain'
   mixing_beta      = 0.1
   mixing_ndim      = 10
/
&IONS
/
&CELL
/

ATOMIC_SPECIES
Cu 63.546 Cu.pbe-dn-rrkjus_psl.1.0.0.UPF
Os 190.23 Os.pbe-spn-rrkjus_psl.1.0.0.UPF

K_POINTS automatic
12 12 1  0 0 0

CELL_PARAMETERS alat
5.23570400000000 0.00000000000000 0.00000000000000
-2.61785200000000 4.74727100000000 0.00000000000000
0.00000000000000 0.00000000000000 24.36768800000000

ATOMIC_POSITIONS alat
Cu 0.0000000000 0.0000000000 10.0000000000 
Cu 2.6178521000 0.0000000000 10.0000000000 
Os 1.3089261000 2.3736356000 10.0000000000 
Os -1.3089261000 2.3736356000 10.0000000000 
Cu 2.6178521000 1.4435977000 12.1838442000 
Cu 0.0000000000 1.4435977000 12.1838442000 
Os -1.3089261000 3.8172333000 12.1838442000 
Os 1.3089261000 3.8172333000 12.1838442000 
Cu -0.0000040000 2.5856241000 14.4334958000 
Cu 2.6178581000 2.5856221000 14.4334931000 
Os 3.9267772000 0.1958567000 14.2961308000 
Os 1.3089274000 0.1958593000 14.2961290000 

