&CONTROL
   calculation      = 'scf'
   tstress          = .true.
   tprnfor          = .true.
   outdir           = './Cu2Zr2'
   prefix           = 'Cu2Zr2_beef'
   pseudo_dir       = '../pseudo'
   tefield          = .true.
   dipfield         = .true.
/
&SYSTEM
   celldm(1)        = 1.889726
   ecutwfc          = 55.123963237125
   ecutrho          = 551.23963237125
   nosym            = .true.
   occupations      = 'smearing'
   degauss          = 0.01D0
   smearing         = 'fd'
   input_dft        = 'BEEF-vdW'
   edir             = 3
   emaxpos          = 0.95
   eopreg           = 0.05
   eamp             = 0.01
   ntyp             = 2
   nat              = 12
   ibrav            = 0
/
&ELECTRONS
   electron_maxstep = 500
   conv_thr         = 1e-05
   mixing_mode      = 'plain'
   mixing_beta      = 0.1
   mixing_ndim      = 10
/
&IONS
/
&CELL
/

ATOMIC_SPECIES
Cu 63.546 Cu.pbe-dn-rrkjus_psl.1.0.0.UPF
Zr 91.224 Zr.pbe-spn-rrkjus_psl.1.0.0.UPF

K_POINTS automatic
12 12 1  0 0 0

CELL_PARAMETERS alat
5.68241400000000 0.00000000000000 0.00000000000000
1.90714700000000 5.35281400000000 0.00000000000000
0.00000000000000 0.00000000000000 24.64359200000000

ATOMIC_POSITIONS alat
Cu 0.0000000000 0.0000000000 10.0000000000 
Cu 3.7947805000 2.6764068000 10.0000000000 
Zr 2.8412068000 0.0000000000 10.0000000000 
Zr 0.9535737000 2.6764068000 10.0000000000 
Cu 5.6824137000 4.0077287000 12.3217958000 
Cu 1.8876332000 1.3313219000 12.3217958000 
Zr 2.8412068000 4.0077287000 12.3217958000 
Zr 4.7288400000 1.3313219000 12.3217958000 
Cu 3.7751487000 2.6625519000 14.5544670000 
Cu 7.5698862000 5.3389456000 14.5544586000 
Zr 6.6179996000 2.6637083000 14.5985903000 
Zr 4.7303503000 5.3401276000 14.5985871000 

