&CONTROL
   calculation      = 'scf'
   tstress          = .true.
   tprnfor          = .true.
   outdir           = './Nb2Ag2'
   prefix           = 'Nb2Ag2_beef'
   pseudo_dir       = '../pseudo'
   tefield          = .true.
   dipfield         = .true.
/
&SYSTEM
   celldm(1)        = 1.889726
   ecutwfc          = 55.123963237125
   ecutrho          = 551.23963237125
   nosym            = .true.
   occupations      = 'smearing'
   degauss          = 0.01D0
   smearing         = 'fd'
   input_dft        = 'BEEF-vdW'
   edir             = 3
   emaxpos          = 0.95
   eopreg           = 0.05
   eamp             = 0.01
   ntyp             = 2
   nat              = 12
   ibrav            = 0
/
&ELECTRONS
   electron_maxstep = 500
   conv_thr         = 1e-05
   mixing_mode      = 'plain'
   mixing_beta      = 0.1
   mixing_ndim      = 10
/
&IONS
/
&CELL
/

ATOMIC_SPECIES
Nb 92.90637 Nb.pbe-spn-rrkjus_psl.1.0.0.UPF
Ag 107.8682 Ag.pbe-n-rrkjus_psl.1.0.0.UPF

K_POINTS automatic
12 12 1  0 0 0

CELL_PARAMETERS alat
5.58599600000000 0.00000000000000 0.00000000000000
-2.79299800000000 5.37883000000000 0.00000000000000
0.00000000000000 0.00000000000000 24.77389200000000

ATOMIC_POSITIONS alat
Nb 0.0000000000 0.0000000000 10.0000000000 
Nb 2.7929981000 0.0000000000 10.0000000000 
Ag 1.3964991000 2.6894149000 10.0000000000 
Ag -1.3964991000 2.6894149000 10.0000000000 
Nb 2.7929981000 1.4502854000 12.3869459000 
Nb -0.0000000000 1.4502854000 12.3869459000 
Ag -1.3964991000 4.1397004000 12.3869459000 
Ag 1.3964991000 4.1397004000 12.3869459000 
Nb -0.0000000000 2.8821074000 14.6235520000 
Nb 2.7929983000 2.8821071000 14.6235542000 
Ag 4.1894970000 0.2398116000 14.8583773000 
Ag 1.3964993000 0.2398113000 14.8583775000 

