&CONTROL
   calculation      = 'scf'
   tstress          = .true.
   tprnfor          = .true.
   outdir           = './Nb2Ru2'
   prefix           = 'Nb2Ru2_beef'
   pseudo_dir       = '../pseudo'
   tefield          = .true.
   dipfield         = .true.
/
&SYSTEM
   celldm(1)        = 1.889726
   ecutwfc          = 55.123963237125
   ecutrho          = 551.23963237125
   nosym            = .true.
   occupations      = 'smearing'
   degauss          = 0.01D0
   smearing         = 'fd'
   input_dft        = 'BEEF-vdW'
   edir             = 3
   emaxpos          = 0.95
   eopreg           = 0.05
   eamp             = 0.01
   ntyp             = 2
   nat              = 12
   ibrav            = 0
/
&ELECTRONS
   electron_maxstep = 500
   conv_thr         = 1e-05
   mixing_mode      = 'plain'
   mixing_beta      = 0.1
   mixing_ndim      = 10
/
&IONS
/
&CELL
/

ATOMIC_SPECIES
Nb 92.90637 Nb.pbe-spn-rrkjus_psl.1.0.0.UPF
Ru 101.07 Ru.pbe-spn-rrkjus_psl.1.0.0.UPF

K_POINTS automatic
12 12 1  0 0 0

CELL_PARAMETERS alat
5.51983400000000 0.00000000000000 0.00000000000000
2.10893700000000 5.10107400000000 0.00000000000000
0.00000000000000 0.00000000000000 24.56280400000000

ATOMIC_POSITIONS alat
Nb 0.0000000000 0.0000000000 10.0000000000 
Nb 3.8143855000 2.5505372000 10.0000000000 
Ru 2.7599172000 0.0000000000 10.0000000000 
Ru 1.0544683000 2.5505372000 10.0000000000 
Nb 5.5198345000 3.6909072000 12.2814022000 
Nb 1.7054490000 1.1403701000 12.2814022000 
Ru 2.7599172000 3.6909072000 12.2814022000 
Ru 4.4653662000 1.1403701000 12.2814022000 
Nb 3.6393005000 2.4334644000 14.5678088000 
Nb 7.4536838000 4.9840013000 14.5678090000 
Ru 6.4093601000 2.4402491000 14.3661809000 
Ru 4.7039217000 4.9907874000 14.3661815000 

