&CONTROL
   calculation      = 'scf'
   tstress          = .true.
   tprnfor          = .true.
   outdir           = './Rh2Ag2'
   prefix           = 'Rh2Ag2_beef'
   pseudo_dir       = '../pseudo'
   tefield          = .true.
   dipfield         = .true.
/
&SYSTEM
   celldm(1)        = 1.889726
   ecutwfc          = 55.123963237125
   ecutrho          = 551.23963237125
   nosym            = .true.
   occupations      = 'smearing'
   degauss          = 0.01D0
   smearing         = 'fd'
   input_dft        = 'BEEF-vdW'
   edir             = 3
   emaxpos          = 0.95
   eopreg           = 0.05
   eamp             = 0.01
   ntyp             = 2
   nat              = 12
   ibrav            = 0
/
&ELECTRONS
   electron_maxstep = 500
   conv_thr         = 1e-05
   mixing_mode      = 'plain'
   mixing_beta      = 0.1
   mixing_ndim      = 10
/
&IONS
/
&CELL
/

ATOMIC_SPECIES
Rh 102.9055 Rh.pbe-spn-rrkjus_psl.1.0.0.UPF
Ag 107.8682 Ag.pbe-n-rrkjus_psl.1.0.0.UPF

K_POINTS automatic
12 12 1  0 0 0

CELL_PARAMETERS alat
5.50725600000000 0.00000000000000 0.00000000000000
-2.75362800000000 5.12433100000000 0.00000000000000
0.00000000000000 0.00000000000000 24.64454900000000

ATOMIC_POSITIONS alat
Rh 0.0000000000 0.0000000000 10.0000000000 
Rh 2.7536282000 0.0000000000 10.0000000000 
Ag 1.3768141000 2.5621657000 10.0000000000 
Ag -1.3768141000 2.5621657000 10.0000000000 
Rh 2.7536282000 1.4796991000 12.3222745000 
Rh -0.0000000000 1.4796991000 12.3222745000 
Ag -1.3768141000 4.0418647000 12.3222745000 
Ag 1.3768141000 4.0418647000 12.3222745000 
Rh -0.0001777000 2.7350659000 14.5303825000 
Rh 2.7534494000 2.7350149000 14.5303968000 
Ag 4.1300325000 0.2257497000 14.8166801000 
Ag 1.3766177000 0.2257489000 14.8166757000 

