&CONTROL
   calculation      = 'scf'
   tstress          = .true.
   tprnfor          = .true.
   outdir           = './Ru2Ag2'
   prefix           = 'Ru2Ag2_beef'
   pseudo_dir       = '../pseudo'
   tefield          = .true.
   dipfield         = .true.
/
&SYSTEM
   celldm(1)        = 1.889726
   ecutwfc          = 55.123963237125
   ecutrho          = 551.23963237125
   nosym            = .true.
   occupations      = 'smearing'
   degauss          = 0.01D0
   smearing         = 'fd'
   input_dft        = 'BEEF-vdW'
   edir             = 3
   emaxpos          = 0.95
   eopreg           = 0.05
   eamp             = 0.01
   ntyp             = 2
   nat              = 12
   ibrav            = 0
/
&ELECTRONS
   electron_maxstep = 500
   conv_thr         = 1e-05
   mixing_mode      = 'plain'
   mixing_beta      = 0.1
   mixing_ndim      = 10
/
&IONS
/
&CELL
/

ATOMIC_SPECIES
Ru 101.07 Ru.pbe-spn-rrkjus_psl.1.0.0.UPF
Ag 107.8682 Ag.pbe-n-rrkjus_psl.1.0.0.UPF

K_POINTS automatic
12 12 1  0 0 0

CELL_PARAMETERS alat
5.33338600000000 0.00000000000000 0.00000000000000
-2.66669300000000 5.25826300000000 0.00000000000000
0.00000000000000 0.00000000000000 24.59664100000000

ATOMIC_POSITIONS alat
Ru 0.0000000000 0.0000000000 10.0000000000 
Ru 2.6666930000 0.0000000000 10.0000000000 
Ag 1.3333465000 2.6291313000 10.0000000000 
Ag -1.3333465000 2.6291313000 10.0000000000 
Ru 2.6666930000 1.3523957000 12.2983206000 
Ru -0.0000000000 1.3523957000 12.2983206000 
Ag -1.3333465000 3.9815270000 12.2983206000 
Ag 1.3333465000 3.9815270000 12.2983206000 
Ru -0.0000719000 2.2558345000 14.4115061000 
Ru 2.6666204000 2.2558283000 14.4114769000 
Ag 1.3330281000 4.9642737000 14.9022461000 
Ag -1.3334494000 4.9642743000 14.9022451000 

