&CONTROL
   calculation      = 'scf'
   tstress          = .true.
   tprnfor          = .true.
   outdir           = './Ru2Hg2'
   prefix           = 'Ru2Hg2_beef'
   pseudo_dir       = '../pseudo'
   tefield          = .true.
   dipfield         = .true.
/
&SYSTEM
   celldm(1)        = 1.889726
   ecutwfc          = 55.123963237125
   ecutrho          = 551.23963237125
   nosym            = .true.
   occupations      = 'smearing'
   degauss          = 0.01D0
   smearing         = 'fd'
   input_dft        = 'BEEF-vdW'
   edir             = 3
   emaxpos          = 0.95
   eopreg           = 0.05
   eamp             = 0.01
   ntyp             = 2
   nat              = 12
   ibrav            = 0
/
&ELECTRONS
   electron_maxstep = 500
   conv_thr         = 1e-05
   mixing_mode      = 'plain'
   mixing_beta      = 0.1
   mixing_ndim      = 10
/
&IONS
/
&CELL
/

ATOMIC_SPECIES
Ru 101.07 Ru.pbe-spn-rrkjus_psl.1.0.0.UPF
Hg 200.592 Hg.pbe-n-rrkjus_psl.1.0.0.UPF

K_POINTS automatic
12 12 1  0 0 0

CELL_PARAMETERS alat
5.77696500000000 0.00000000000000 0.00000000000000
2.67996300000000 5.11772700000000 0.00000000000000
0.00000000000000 0.00000000000000 24.76221200000000

ATOMIC_POSITIONS alat
Ru 0.0000000000 0.0000000000 10.0000000000 
Ru 4.2284644000 2.5588633000 10.0000000000 
Hg 2.8884827000 0.0000000000 10.0000000000 
Hg 1.3399817000 2.5588633000 10.0000000000 
Ru 5.7769654000 3.4959416000 12.3811060000 
Ru 1.5485010000 0.9370783000 12.3811060000 
Hg 2.8884827000 3.4959416000 12.3811060000 
Hg 4.4369837000 0.9370783000 12.3811060000 
Ru 2.2247098000 1.3462877000 14.4967025000 
Ru 6.4531880000 3.9051428000 14.4965498000 
Hg 5.1822393000 1.3880329000 15.3025630000 
Hg 3.6337247000 3.9469412000 15.3025799000 

