&CONTROL
   calculation      = 'scf'
   tstress          = .true.
   tprnfor          = .true.
   outdir           = './Ru2Os2'
   prefix           = 'Ru2Os2_beef'
   pseudo_dir       = '../pseudo'
   tefield          = .true.
   dipfield         = .true.
/
&SYSTEM
   celldm(1)        = 1.889726
   ecutwfc          = 55.123963237125
   ecutrho          = 551.23963237125
   nosym            = .true.
   occupations      = 'smearing'
   degauss          = 0.01D0
   smearing         = 'fd'
   input_dft        = 'BEEF-vdW'
   edir             = 3
   emaxpos          = 0.95
   eopreg           = 0.05
   eamp             = 0.01
   ntyp             = 2
   nat              = 12
   ibrav            = 0
/
&ELECTRONS
   electron_maxstep = 500
   conv_thr         = 1e-05
   mixing_mode      = 'plain'
   mixing_beta      = 0.1
   mixing_ndim      = 10
/
&IONS
/
&CELL
/

ATOMIC_SPECIES
Ru 101.07 Ru.pbe-spn-rrkjus_psl.1.0.0.UPF
Os 190.23 Os.pbe-spn-rrkjus_psl.1.0.0.UPF

K_POINTS automatic
12 12 1  0 0 0

CELL_PARAMETERS alat
5.42573300000000 0.00000000000000 0.00000000000000
-2.71286700000000 4.70562100000000 0.00000000000000
0.00000000000000 0.00000000000000 24.43328900000000

ATOMIC_POSITIONS alat
Ru 0.0000000000 0.0000000000 10.0000000000 
Ru 2.7128667000 0.0000000000 10.0000000000 
Os 1.3564333000 2.3528104000 10.0000000000 
Os -1.3564333000 2.3528104000 10.0000000000 
Ru 2.7128667000 1.5640116000 12.2166446000 
Ru -0.0000000000 1.5640116000 12.2166446000 
Os -1.3564333000 3.9168221000 12.2166446000 
Os 1.3564333000 3.9168221000 12.2166446000 
Ru -0.0000005000 3.1466236000 14.3399804000 
Ru 2.7128660000 3.1466250000 14.3399803000 
Os 4.0692975000 0.7587100000 14.3300035000 
Os 1.3564276000 0.7587075000 14.3300050000 

