&CONTROL
   calculation      = 'scf'
   tstress          = .true.
   tprnfor          = .true.
   outdir           = './Zn2Ag2'
   prefix           = 'Zn2Ag2_beef'
   pseudo_dir       = '../pseudo'
   tefield          = .true.
   dipfield         = .true.
/
&SYSTEM
   celldm(1)        = 1.889726
   ecutwfc          = 55.123963237125
   ecutrho          = 551.23963237125
   nosym            = .true.
   occupations      = 'smearing'
   degauss          = 0.01D0
   smearing         = 'fd'
   input_dft        = 'BEEF-vdW'
   edir             = 3
   emaxpos          = 0.95
   eopreg           = 0.05
   eamp             = 0.01
   ntyp             = 2
   nat              = 12
   ibrav            = 0
/
&ELECTRONS
   electron_maxstep = 500
   conv_thr         = 1e-05
   mixing_mode      = 'plain'
   mixing_beta      = 0.1
   mixing_ndim      = 10
/
&IONS
/
&CELL
/

ATOMIC_SPECIES
Zn 65.38 Zn.pbe-spn-rrkjus_psl.1.0.0.UPF
Ag 107.8682 Ag.pbe-n-rrkjus_psl.1.0.0.UPF

K_POINTS automatic
12 12 1  0 0 0

CELL_PARAMETERS alat
5.58383200000000 0.00000000000000 0.00000000000000
2.00743400000000 5.21050800000000 0.00000000000000
0.00000000000000 0.00000000000000 24.59602800000000

ATOMIC_POSITIONS alat
Zn 0.0000000000 0.0000000000 10.0000000000 
Zn 3.7956330000 2.6052538000 10.0000000000 
Ag 2.7919161000 0.0000000000 10.0000000000 
Ag 1.0037169000 2.6052538000 10.0000000000 
Zn 5.5838321000 3.8326414000 12.2980138000 
Zn 1.7881991000 1.2273875000 12.2980138000 
Ag 2.7919161000 3.8326414000 12.2980138000 
Ag 4.5801152000 1.2273875000 12.2980138000 
Zn 3.5760007000 2.4544903000 14.7845929000 
Zn 7.3716474000 5.0597748000 14.7845915000 
Ag 6.3736427000 2.4584310000 14.6901113000 
Ag 4.5854402000 5.0636847000 14.6901103000 

