&CONTROL
   calculation      = 'scf'
   tstress          = .true.
   tprnfor          = .true.
   outdir           = './Zn2Ru2'
   prefix           = 'Zn2Ru2_beef'
   pseudo_dir       = '../pseudo'
   tefield          = .true.
   dipfield         = .true.
/
&SYSTEM
   celldm(1)        = 1.889726
   ecutwfc          = 55.123963237125
   ecutrho          = 551.23963237125
   nosym            = .true.
   occupations      = 'smearing'
   degauss          = 0.01D0
   smearing         = 'fd'
   input_dft        = 'BEEF-vdW'
   edir             = 3
   emaxpos          = 0.95
   eopreg           = 0.05
   eamp             = 0.01
   ntyp             = 2
   nat              = 12
   ibrav            = 0
/
&ELECTRONS
   electron_maxstep = 500
   conv_thr         = 1e-05
   mixing_mode      = 'plain'
   mixing_beta      = 0.1
   mixing_ndim      = 10
/
&IONS
/
&CELL
/

ATOMIC_SPECIES
Zn 65.38 Zn.pbe-spn-rrkjus_psl.1.0.0.UPF
Ru 101.07 Ru.pbe-spn-rrkjus_psl.1.0.0.UPF

K_POINTS automatic
12 12 1  0 0 0

CELL_PARAMETERS alat
5.25403200000000 0.00000000000000 0.00000000000000
1.76569800000000 4.94845100000000 0.00000000000000
0.00000000000000 0.00000000000000 24.29421100000000

ATOMIC_POSITIONS alat
Zn 0.0000000000 0.0000000000 10.0000000000 
Zn 3.5098652000 2.4742254000 10.0000000000 
Ru 2.6270161000 0.0000000000 10.0000000000 
Ru 0.8828490000 2.4742254000 10.0000000000 
Zn 5.2540323000 3.7037492000 12.1471057000 
Zn 1.7441671000 1.2295238000 12.1471057000 
Ru 2.6270161000 3.7037492000 12.1471057000 
Ru 4.3711833000 1.2295238000 12.1471057000 
Zn 3.4882336000 2.4587765000 14.4061110000 
Zn 6.9979093000 4.9332680000 14.4061096000 
Ru 6.1152408000 2.4589702000 14.1830008000 
Ru 4.3698193000 4.9323117000 14.1830190000 

